# vtk DataFile Version 5.1
Generated by LIGGGHTS
ASCII
DATASET POLYDATA
POINTS 6102 float
-0.0126937 0.0271821 0.0155881 -0.0124321 0.0273028 0.00930672 -0.0165492 0.0250225 0.0132679 
-0.00809412 -0.0211818 0.000744735 -0.0122417 -0.0232057 0.000744735 -0.0123473 -0.0194528 0.000744735 
-0.0289079 0.00802077 0.0107606 -0.0273354 0.0123603 0.00906232 -0.0288894 0.00808717 0.00501136 
0.00844368 0.024816 0.000744735 0.0122843 0.0228125 0.000744735 0.00935195 0.0210524 0.000744735 
-0.0295908 -0.00493784 0.000744735 -0.0288725 -0.00814748 0.00560481 -0.0299026 -0.00241541 0.00478185 
-0.0122417 -0.0232057 0.000744735 -0.0159919 -0.0205249 0.000744735 -0.0123473 -0.0194528 0.000744735 
-0.0288894 0.00808717 0.00501136 -0.0273354 0.0123603 0.00906232 -0.0273757 0.0122708 0.00490711 
-0.0201231 0.02225 0.0098748 -0.0184264 0.0236742 0.00503446 -0.022056 0.0203355 0.00504783 
0.0120283 0.0274831 0.0101161 0.0142805 0.0263831 0.00503531 0.00977164 0.028364 0.00502772 
0.0184264 0.0236742 0.00503446 0.0192678 0.0229946 0.0107476 0.0222062 0.0201714 0.00814856 
0.00475217 0.0262618 0.000744735 0.00844368 0.024816 0.000744735 0.0049706 0.0224562 0.000744735 
-0.0119911 -0.0274993 0.0100089 -0.0142657 -0.0263911 0.0050354 -0.00974487 -0.0283732 0.00503521 
0.000157307 -0.0299996 0.0080593 -0.00385588 -0.0297512 0.0106491 -0.00493784 -0.0295908 0.00503446 
-0.00736456 0.029082 0.000744735 -0.00480389 0.0254027 0.000744735 -0.00875739 0.0254178 0.000744735 
0.0131895 -0.0269451 0.010607 0.00963764 -0.0284098 0.0078631 0.0142784 -0.0263842 0.00503446 
0.00756968 -0.0163985 0.000744735 0.0120396 -0.017547 0.000744735 0.00891473 -0.0202971 0.000744735 
-9.41575e-05 -0.0230183 0.000744735 0.00371169 -0.0256228 0.000744735 -0.000122576 -0.0268323 0.000744735 
0.0168138 -0.0248454 0.0130785 0.0201617 -0.022215 0.00923585 0.0201941 -0.0221856 0.0153815 
-0.00853274 0.028761 0.0132394 -0.0124321 0.0273028 0.00930672 -0.0126937 0.0271821 0.0155881 
0.00371169 -0.0256228 0.000744735 0.00247738 -0.0298975 0.000744735 -0.000122576 -0.0268323 0.000744735 
-0.0192177 -0.0230365 0.0106768 -0.0220848 -0.0203042 0.00809767 -0.0184264 -0.0236742 0.00503446 
-0.0122417 -0.0232057 0.000744735 -0.00809412 -0.0211818 0.000744735 -0.00884013 -0.0252871 0.000744735 
-0.0120509 -0.0274732 0.000744735 -0.0122417 -0.0232057 0.000744735 -0.00884013 -0.0252871 0.000744735 
0.0201941 -0.0221856 0.0153815 0.0201617 -0.022215 0.00923585 0.0231666 -0.0190606 0.0130511 
-0.00480389 0.0254027 0.000744735 -0.0076627 0.0219387 0.000744735 -0.00875739 0.0254178 0.000744735 
0.0222062 0.0201714 0.00814856 0.0220717 0.0203184 0.00413153 0.0184264 0.0236742 0.00503446 
-0.0263842 0.0142784 0.000744735 -0.0220227 0.0136092 0.000744735 -0.024489 0.0105266 0.000744735 
-0.0124321 0.0273028 0.00930672 -0.0164084 0.025115 0.00877793 -0.0165492 0.0250225 0.0132679 
-0.022056 0.0203355 0.00504783 -0.0228381 0.019453 0.00924096 -0.0201231 0.02225 0.0098748 
-0.0288725 -0.00814748 0.00560481 -0.0296896 -0.00430411 0.00876788 -0.0299026 -0.00241541 0.00478185 
-0.0283745 -0.00974098 0.000744735 -0.0288725 -0.00814748 0.00560481 -0.0295908 -0.00493784 0.000744735 
0.0123194 -0.0226331 0.000744735 0.00814478 -0.0242894 0.000744735 0.00891473 -0.0202971 0.000744735 
0.0113385 0.0181284 0.000744735 0.00649523 0.0189422 0.000744735 0.00935195 0.0210524 0.000744735 
0.0283745 0.00974098 0.000744735 0.0295908 0.00493784 0.000744735 0.0262923 0.00664646 0.000744735 
-0.0120509 0.0274732 0.000744735 -0.00736456 0.029082 0.000744735 -0.00875739 0.0254178 0.000744735 
0.0283745 0.00974098 0.000744735 0.0289467 0.00787963 0.00539766 0.0295908 0.00493784 0.000744735 
-0.00493784 -0.0295908 0.00503446 1.0107e-16 -0.03 0.00406379 0.000157307 -0.0299996 0.0080593 
0.00977164 0.028364 0.00502772 0.00701649 0.0291679 0.00885938 0.0120283 0.0274831 0.0101161 
0.00247738 -0.0298975 0.000744735 -0.00247738 -0.0298975 0.000744735 -0.000122576 -0.0268323 0.000744735 
-0.00987953 -0.0164218 0.000744735 -0.00809412 -0.0211818 0.000744735 -0.0123473 -0.0194528 0.000744735 
0.00649523 0.0189422 0.000744735 0.0049706 0.0224562 0.000744735 0.00935195 0.0210524 0.000744735 
-0.025115 0.0164084 0.00503446 -0.0273354 0.0123603 0.00906232 -0.0253407 0.0160578 0.0108315 
0.00963764 -0.0284098 0.0078631 0.00974098 -0.0283745 0.00390252 0.0142784 -0.0263842 0.00503446 
0.0120283 0.0274831 0.0101161 0.0157587 0.0255277 0.009198 0.0142805 0.0263831 0.00503531 
-0.0220848 -0.0203042 0.00809767 -0.0249482 -0.016661 0.0104733 -0.0250481 -0.0165103 0.00489695 
-0.0119911 -0.0274993 0.0100089 -0.0157145 -0.0255549 0.00906687 -0.0142657 -0.0263911 0.0050354 
0.00649523 0.0189422 0.000744735 0.00170261 0.0199253 0.000744735 0.0049706 0.0224562 0.000744735 
0.0289467 0.00787963 0.00539766 0.0297216 0.00407725 0.00470627 0.0295908 0.00493784 0.000744735 
-0.00461575 0.0296428 0.0108044 -0.000625354 0.0299935 0.00913367 -0.00490727 0.0295959 0.00516998 
0.0250538 0.0165017 0.0048664 0.0250351 0.0165301 0.0105801 0.0272354 0.0125791 0.00826084 
-0.0220848 -0.0203042 0.00809767 -0.0220717 -0.0203184 0.00406944 -0.0184264 -0.0236742 0.00503446 
-0.0209022 0.00905108 0.000744735 -0.0247613 0.00595337 0.000744735 -0.024489 0.0105266 0.000744735 
0.0228419 0.00568166 0.000744735 0.0233864 0.0102056 0.000744735 0.0262923 0.00664646 0.000744735 
0.0250538 0.0165017 0.0048664 0.0222062 0.0201714 0.00814856 0.0250351 0.0165301 0.0105801 
-0.00974487 -0.0283732 0.00503521 -0.00801402 -0.0289098 0.00904548 -0.0119911 -0.0274993 0.0100089 
-0.0201231 0.02225 0.0098748 -0.0164084 0.025115 0.00877793 -0.0184264 0.0236742 0.00503446 
-0.0249482 -0.016661 0.0104733 -0.0271708 -0.012718 0.00810134 -0.0250481 -0.0165103 0.00489695 
0.00489992 -0.0295971 0.0103526 0.000157307 -0.0299996 0.0080593 0.00493784 -0.0295908 0.00503446 
0.0254585 0.00211549 0.000744735 0.0228419 0.00568166 0.000744735 0.0262923 0.00664646 0.000744735 
0.00493784 -0.0295908 0.00503446 0.00963764 -0.0284098 0.0078631 0.00489992 -0.0295971 0.0103526 
-0.03 -6.29394e-17 0.000744735 -0.0295908 0.00493784 0.000744735 -0.0269306 0.00213112 0.000744735 
-0.0273757 0.0122708 0.00490711 -0.0273354 0.0123603 0.00906232 -0.025115 0.0164084 0.00503446 
-0.0289079 0.00802077 0.0107606 -0.0288894 0.00808717 0.00501136 -0.0297561 0.00381799 0.00827593 
0.0049706 0.0224562 0.000744735 0.00844368 0.024816 0.000744735 0.00935195 0.0210524 0.000744735 
0.0157653 0.0203057 0.000744735 0.0190979 0.0173202 0.000744735 0.0151607 0.0162574 0.000744735 
0.0164084 0.025115 0.000744735 0.0157653 0.0203057 0.000744735 0.0122843 0.0228125 0.000744735 
-0.0230511 0.00103609 0.000744735 -0.026125 -0.00201284 0.000744735 -0.0269306 0.00213112 0.000744735 
-0.0253407 0.0160578 0.0108315 -0.0228381 0.019453 0.00924096 -0.025115 0.0164084 0.00503446 
0.0184264 0.0236742 0.00503446 0.0157587 0.0255277 0.009198 0.0192678 0.0229946 0.0107476 
0.0168138 -0.0248454 0.0130785 0.0165149 -0.0250451 0.00872062 0.0201617 -0.022215 0.00923585 
-0.00490727 0.0295959 0.00516998 -0.000625354 0.0299935 0.00913367 -1.49662e-14 0.03 0.00503446 
-0.0076627 0.0219387 0.000744735 -0.0119049 0.0231923 0.000744735 -0.00875739 0.0254178 0.000744735 
-0.00490727 0.0295959 0.00516998 -0.00817694 0.0288641 0.00884097 -0.00461575 0.0296428 0.0108044 
0.0129972 -0.0046275 0.000744735 0.0164569 -0.00110475 0.000744735 0.0170352 -0.00513945 0.000744735 
-0.0263842 -0.0142784 0.000744735 -0.0283745 -0.00974098 0.000744735 -0.0244738 -0.0106783 0.000744735 
0.0288726 -0.00814691 0.0207818 0.0289195 -0.007979 0.0159737 0.0297176 -0.00410653 0.018362 
-0.00983278 0.0143111 0.000744735 -0.0143728 0.0156392 0.000744735 -0.0110301 0.0188699 0.000744735 
0.0295896 -0.00494546 0.00856872 0.0285006 -0.00936554 0.00882786 0.029082 -0.00736456 0.00503446 
0.0131895 -0.0269451 0.010607 0.00919592 -0.0285558 0.01298 0.00963764 -0.0284098 0.0078631 
0.00963764 -0.0284098 0.0078631 0.00919592 -0.0285558 0.01298 0.00489992 -0.0295971 0.0103526 
-0.0252385 -0.00663486 0.000744735 -0.0295908 -0.00493784 0.000744735 -0.026125 -0.00201284 0.000744735 
-0.0283745 0.00974098 0.000744735 -0.0263842 0.0142784 0.000744735 -0.024489 0.0105266 0.000744735 
-0.00528641 -0.0174878 0.000744735 -0.000595274 -0.0186108 0.000744735 -0.0036895 -0.0211171 0.000744735 
0.0124538 0.0129968 0.000744735 0.0113385 0.0181284 0.000744735 0.0151607 0.0162574 0.000744735 
-0.0184264 -0.0236742 0.00503446 -0.0157145 -0.0255549 0.00906687 -0.0192177 -0.0230365 0.0106768 
-0.0186531 -0.000485601 0.000744735 -0.0175293 -0.00534917 0.000744735 -0.0219391 -0.00367156 0.000744735 
-0.00385588 -0.0297512 0.0106491 -0.00801402 -0.0289098 0.00904548 -0.00493784 -0.0295908 0.00503446 
-0.00736456 -0.029082 0.000744735 -0.0120509 -0.0274732 0.000744735 -0.00884013 -0.0252871 0.000744735 
-0.0252385 -0.00663486 0.000744735 -0.0210329 -0.00857697 0.000744735 -0.0244738 -0.0106783 0.000744735 
-0.0210329 -0.00857697 0.000744735 -0.0210811 -0.013826 0.000744735 -0.0244738 -0.0106783 0.000744735 
-0.026125 -0.00201284 0.000744735 -0.03 -6.29394e-17 0.000744735 -0.0269306 0.00213112 0.000744735 
0.0159555 -0.0144888 0.000744735 0.015062 -0.00917333 0.000744735 0.0184672 -0.0112631 0.000744735 
-0.027085 -0.0128997 0.0181242 -0.0271198 -0.0128264 0.0130946 -0.0249489 -0.0166599 0.015608 
-0.0120509 -0.0274732 0.000744735 -0.0164084 -0.025115 0.000744735 -0.0122417 -0.0232057 0.000744735 
-0.0249482 -0.016661 0.0104733 -0.0271198 -0.0128264 0.0130946 -0.0271708 -0.012718 0.00810134 
-0.0250481 -0.0165103 0.00489695 -0.0220717 -0.0203184 0.00406944 -0.0220848 -0.0203042 0.00809767 
-0.0119049 0.0231923 0.000744735 -0.0120509 0.0274732 0.000744735 -0.00875739 0.0254178 0.000744735 
0.0142784 -0.0263842 0.00503446 0.0165149 -0.0250451 0.00872062 0.0131895 -0.0269451 0.010607 
-0.00247738 -0.0298975 0.000744735 -0.00437754 -0.0252867 0.000744735 -0.000122576 -0.0268323 0.000744735 
0.0295908 0.00493784 0.000744735 0.0254585 0.00211549 0.000744735 0.0262923 0.00664646 0.000744735 
0.0233864 0.0102056 0.000744735 0.0283745 0.00974098 0.000744735 0.0262923 0.00664646 0.000744735 
-0.0249489 -0.0166599 0.015608 -0.0271198 -0.0128264 0.0130946 -0.0249482 -0.016661 0.0104733 
-0.0295908 0.00493784 0.000744735 -0.0247613 0.00595337 0.000744735 -0.0269306 0.00213112 0.000744735 
-0.0283745 -0.00974098 0.000744735 -0.0252385 -0.00663486 0.000744735 -0.0244738 -0.0106783 0.000744735 
-0.0286771 -0.00881029 0.0156698 -0.0271198 -0.0128264 0.0130946 -0.027085 -0.0128997 0.0181242 
-0.0210811 -0.013826 0.000744735 -0.0263842 -0.0142784 0.000744735 -0.0244738 -0.0106783 0.000744735 
-0.0219391 -0.00367156 0.000744735 -0.0252385 -0.00663486 0.000744735 -0.026125 -0.00201284 0.000744735 
-0.0295908 -0.00493784 0.000744735 -0.03 -6.29394e-17 0.000744735 -0.026125 -0.00201284 0.000744735 
-0.0286771 -0.00881029 0.0156698 -0.0287453 -0.00858536 0.0106625 -0.0271198 -0.0128264 0.0130946 
-0.0247613 0.00595337 0.000744735 -0.0283745 0.00974098 0.000744735 -0.024489 0.0105266 0.000744735 
-0.00306504 0.0210841 0.000744735 -0.0076627 0.0219387 0.000744735 -0.00480389 0.0254027 0.000744735 
0.0295896 -0.00494546 0.00856872 0.0290063 -0.00765723 0.0118795 0.0285006 -0.00936554 0.00882786 
-0.00437754 -0.0252867 0.000744735 -0.00736456 -0.029082 0.000744735 -0.00884013 -0.0252871 0.000744735 
-0.0164084 -0.025115 0.000744735 -0.0159919 -0.0205249 0.000744735 -0.0122417 -0.0232057 0.000744735 
0.0193501 0.0229254 0.0157589 0.0158958 0.0254425 0.0182522 0.0194104 0.0228744 0.0207151 
0.0254329 -0.0159112 0.0107376 0.0230385 -0.0192153 0.00885066 0.0251416 -0.0163677 0.00512015 
0.015885 0.0254493 0.0133897 0.0193501 0.0229254 0.0157589 0.0192678 0.0229946 0.0107476 
-0.0249489 -0.0166599 0.015608 -0.0249482 -0.016661 0.0104733 -0.0222638 -0.0201078 0.0131512 
-0.0222638 -0.0201078 0.0131512 -0.0222962 -0.0200718 0.0181286 -0.0249489 -0.0166599 0.015608 
-0.0192 -0.0230512 0.01565 -0.0222962 -0.0200718 0.0181286 -0.0222638 -0.0201078 0.0131512 
-0.0286771 -0.00881029 0.0156698 -0.0296425 -0.00461751 0.013303 -0.0287453 -0.00858536 0.0106625 
-0.0192045 -0.0230475 0.0206191 -0.0222962 -0.0200718 0.0181286 -0.0192 -0.0230512 0.01565 
-0.0192045 -0.0230475 0.0206191 -0.0192 -0.0230512 0.01565 -0.0157275 -0.0255469 0.0181116 
0.00814478 -0.0242894 0.000744735 0.00736456 -0.029082 0.000744735 0.00371169 -0.0256228 0.000744735 
-0.0157275 -0.0255469 0.0181116 -0.0157219 -0.0255504 0.0230864 -0.0192045 -0.0230475 0.0206191 
-0.00437754 -0.0252867 0.000744735 -9.41575e-05 -0.0230183 0.000744735 -0.000122576 -0.0268323 0.000744735 
-0.0119139 -0.0275329 0.0205813 -0.0157219 -0.0255504 0.0230864 -0.0157275 -0.0255469 0.0181116 
-0.0119139 -0.0275329 0.0205813 -0.0119095 -0.0275348 0.0255586 -0.0157219 -0.0255504 0.0230864 
-0.00786309 -0.0289512 0.0230669 -0.0119095 -0.0275348 0.0255586 -0.0119139 -0.0275329 0.0205813 
0.0159468 0.0254106 0.023202 0.0121525 0.0274284 0.0256894 0.015987 0.0253853 0.028169 
0.00736456 -0.029082 0.000744735 0.00247738 -0.0298975 0.000744735 0.00371169 -0.0256228 0.000744735 
0.0272336 0.0125829 0.0232141 0.0287571 0.00854579 0.0257125 0.0287579 0.00854315 0.0207306 
0.00736456 0.029082 0.000744735 0.00844368 0.024816 0.000744735 0.00475217 0.0262618 0.000744735 
0.0251416 -0.0163677 0.00512015 0.0270287 -0.0130173 0.00844654 0.0254329 -0.0159112 0.0107376 
0.0120509 0.0274732 0.000744735 0.0164084 0.025115 0.000744735 0.0122843 0.0228125 0.000744735 
0.0190979 0.0173202 0.000744735 0.0236742 0.0184264 0.000744735 0.0220564 0.0145128 0.000744735 
0.0275305 -0.0119195 0.0180277 0.0289195 -0.007979 0.0159737 0.0288726 -0.00814691 0.0207818 
0.0203184 -0.0220717 0.000744735 0.0157279 -0.0202072 0.000744735 0.0193677 -0.0178292 0.000744735 
0.015885 0.0254493 0.0133897 0.0158958 0.0254425 0.0182522 0.0193501 0.0229254 0.0157589 
-0.0271198 -0.0128264 0.0130946 -0.0287453 -0.00858536 0.0106625 -0.0271708 -0.012718 0.00810134 
0.0131403 -0.0269691 0.0155742 0.00919592 -0.0285558 0.01298 0.0131895 -0.0269451 0.010607 
0.0287579 0.00854315 0.0207306 0.0287571 0.00854579 0.0257125 0.029686 0.0043293 0.0232362 
0.0250351 0.0165301 0.0105801 0.0222062 0.0201714 0.00814856 0.0223805 0.0199779 0.0132018 
0.03 -7.34788e-18 0.0257447 0.029686 0.0043293 0.0232362 0.0296875 0.00431884 0.0282447 
0.0287785 0.00847339 0.0107117 0.0289467 0.00787963 0.00539766 0.0272354 0.0125791 0.00826084 
-0.00784773 -0.0289554 0.0329911 -0.0119063 -0.0275362 0.0305209 -0.00785235 -0.0289541 0.0280258 
-0.0159919 -0.0205249 0.000744735 -0.0203184 -0.0220717 0.000744735 -0.0192711 -0.0181234 0.000744735 
0.0250847 0.0164548 0.0156728 0.0250351 0.0165301 0.0105801 0.0223805 0.0199779 0.0132018 
0.029686 0.0043293 0.0232362 0.0287571 0.00854579 0.0257125 0.0296875 0.00431884 0.0282447 
0.0287604 0.00853449 0.0157283 0.0287785 0.00847339 0.0107117 0.0272154 0.0126222 0.0131947 
0.03 -7.34788e-18 0.0207447 0.029686 0.0043293 0.0232362 0.03 -7.34788e-18 0.0257447 
-0.0236742 -0.0184264 0.000744735 -0.0210811 -0.013826 0.000744735 -0.0192711 -0.0181234 0.000744735 
0.0296879 0.00431603 0.0132398 0.0287604 0.00853449 0.0157283 0.0296875 0.00431884 0.0182447 
0.0287785 0.00847339 0.0107117 0.0272354 0.0125791 0.00826084 0.0272154 0.0126222 0.0131947 
0.00247738 0.0298975 0.000744735 0.00736456 0.029082 0.000744735 0.00475217 0.0262618 0.000744735 
0.00844368 0.024816 0.000744735 0.0120509 0.0274732 0.000744735 0.0122843 0.0228125 0.000744735 
0.0121103 0.027447 0.0207066 0.0121525 0.0274284 0.0256894 0.0159468 0.0254106 0.023202 
-0.00785235 -0.0289541 0.0280258 -0.0119095 -0.0275348 0.0255586 -0.00786309 -0.0289512 0.0230669 
0.0236742 0.0184264 0.000744735 0.0263842 0.0142784 0.000744735 0.0220564 0.0145128 0.000744735 
-0.0189852 0.0170671 0.000744735 -0.0203184 0.0220717 0.000744735 -0.0155033 0.0203259 0.000744735 
-0.0164084 0.025115 0.000744735 -0.0119049 0.0231923 0.000744735 -0.0155033 0.0203259 0.000744735 
0.0251274 0.0163894 0.0207022 0.0250847 0.0164548 0.0156728 0.0224647 0.0198831 0.0182094 
0.00050668 0.0249923 0.000744735 0.00247738 0.0298975 0.000744735 0.00475217 0.0262618 0.000744735 
0.0164084 0.025115 0.000744735 0.0203184 0.0220717 0.000744735 0.0157653 0.0203057 0.000744735 
0.0296875 0.00431884 0.00824474 0.0289467 0.00787963 0.00539766 0.0287785 0.00847339 0.0107117 
0.0250847 0.0164548 0.0156728 0.0223805 0.0199779 0.0132018 0.0224647 0.0198831 0.0182094 
0.0157279 -0.0202072 0.000744735 0.0164084 -0.025115 0.000744735 0.0123194 -0.0226331 0.000744735 
-0.0203184 0.0220717 0.000744735 -0.0164084 0.025115 0.000744735 -0.0155033 0.0203259 0.000744735 
0.03 -7.34788e-18 0.0157447 0.0296879 0.00431603 0.0132398 0.0296875 0.00431884 0.0182447 
0.02139 -0.0141683 0.000744735 0.0236742 -0.0184264 0.000744735 0.0193677 -0.0178292 0.000744735 
0.0120509 -0.0274732 0.000744735 0.00814478 -0.0242894 0.000744735 0.0123194 -0.0226331 0.000744735 
0.0296879 0.00431603 0.0132398 0.0287785 0.00847339 0.0107117 0.0287604 0.00853449 0.0157283 
-0.0203184 -0.0220717 0.000744735 -0.0236742 -0.0184264 0.000744735 -0.0192711 -0.0181234 0.000744735 
0.0263842 -0.0142784 0.000744735 0.02139 -0.0141683 0.000744735 0.023376 -0.0105655 0.000744735 
0.0203184 0.0220717 0.000744735 0.0190979 0.0173202 0.000744735 0.0157653 0.0203057 0.000744735 
0.03 -7.34788e-18 0.0157447 0.0297176 -0.00410653 0.018362 0.0297087 -0.00417057 0.0135352 
-0.0299961 -0.000481185 0.0256226 -0.0297578 0.00380405 0.0231468 -0.0299964 -0.000462494 0.020681 
0.000658684 -0.0299928 0.02801 -0.00363126 -0.0297794 0.0305006 -0.00363806 -0.0297786 0.025536 
0.0231358 -0.0190981 0.0179868 0.0201941 -0.0221856 0.0153815 0.0231666 -0.0190606 0.0130511 
-0.0299961 -0.000481185 0.0256226 -0.0299964 -0.000462494 0.020681 -0.029623 -0.00474124 0.0231425 
-0.00784773 -0.0289554 0.0329911 -0.00785235 -0.0289541 0.0280258 -0.00363126 -0.0297794 0.0305006 
0.0164084 -0.025115 0.000744735 0.0120509 -0.0274732 0.000744735 0.0123194 -0.0226331 0.000744735 
0.0263842 0.0142784 0.000744735 0.0233864 0.0102056 0.000744735 0.0220564 0.0145128 0.000744735 
0.019454 0.0228373 0.0256889 0.0194104 0.0228744 0.0207151 0.0159468 0.0254106 0.023202 
0.0296875 0.00431884 0.00824474 0.0287785 0.00847339 0.0107117 0.0296879 0.00431603 0.0132398 
0.03 -7.34788e-18 0.000744735 0.0295908 -0.00493784 0.000744735 0.0262759 -0.00240162 0.000744735 
0.0192678 0.0229946 0.0107476 0.0193501 0.0229254 0.0157589 0.0223805 0.0199779 0.0132018 
-0.0297607 0.00378148 0.0330609 -0.0297591 0.00379443 0.0281028 -0.0299958 -0.000498983 0.0305779 
0.0272354 0.0125791 0.00826084 0.0250351 0.0165301 0.0105801 0.0272154 0.0126222 0.0131947 
0.0222062 0.0201714 0.00814856 0.0192678 0.0229946 0.0107476 0.0223805 0.0199779 0.0132018 
0.000666027 -0.0299926 0.0329756 -0.00363126 -0.0297794 0.0305006 0.000658684 -0.0299928 0.02801 
-0.0274736 0.0120499 0.0231611 -0.0274774 0.0120413 0.0281174 -0.0254761 0.015842 0.025642 
0.0248596 -0.00634908 0.000744735 0.0283745 -0.00974098 0.000744735 0.023376 -0.0105655 0.000744735 
0.0272331 0.0125839 0.0182305 0.0250847 0.0164548 0.0156728 0.0251274 0.0163894 0.0207022 
0.0283745 -0.00974098 0.000744735 0.0263842 -0.0142784 0.000744735 0.023376 -0.0105655 0.000744735 
-0.00363126 -0.0297794 0.0305006 -0.00785235 -0.0289541 0.0280258 -0.00363806 -0.0297786 0.025536 
0.0295908 -0.00493784 0.000744735 0.0248596 -0.00634908 0.000744735 0.0262759 -0.00240162 0.000744735 
0.0272154 0.0126222 0.0131947 0.0250351 0.0165301 0.0105801 0.0250847 0.0164548 0.0156728 
0.0272154 0.0126222 0.0131947 0.0250847 0.0164548 0.0156728 0.0272331 0.0125839 0.0182305 
0.0254585 0.00211549 0.000744735 0.03 -7.34788e-18 0.000744735 0.0262759 -0.00240162 0.000744735 
0.03 -7.34788e-18 0.00574474 0.0296875 0.00431884 0.00824474 0.03 -7.34788e-18 0.0107447 
0.0236742 -0.0184264 0.000744735 0.0203184 -0.0220717 0.000744735 0.0193677 -0.0178292 0.000744735 
-0.0236742 0.0184264 0.000744735 -0.0189852 0.0170671 0.000744735 -0.0220227 0.0136092 0.000744735 
-0.0263842 0.0142784 0.000744735 -0.0236742 0.0184264 0.000744735 -0.0220227 0.0136092 0.000744735 
0.0296875 0.00431884 0.00824474 0.0296879 0.00431603 0.0132398 0.03 -7.34788e-18 0.0107447 
-0.0176812 0.0123146 0.000744735 -0.0165367 0.00759335 0.000744735 -0.0209022 0.00905108 0.000744735 
0.0201589 0.00236947 0.000744735 0.0189144 0.00707811 0.000744735 0.0228419 0.00568166 0.000744735 
0.0287604 0.00853449 0.0157283 0.0272154 0.0126222 0.0131947 0.0272331 0.0125839 0.0182305 
0.0214704 -0.00283669 0.000744735 0.0200699 -0.00761178 0.000744735 0.0170352 -0.00513945 0.000744735 
0.0297128 -0.00414138 0.0282399 0.0288533 -0.0082149 0.0256995 0.0297135 -0.00413601 0.0232735 
0.0262759 -0.00240162 0.000744735 0.0248596 -0.00634908 0.000744735 0.0214704 -0.00283669 0.000744735 
-0.00736456 0.029082 0.000744735 -0.00247738 0.0298975 0.000744735 -0.00480389 0.0254027 0.000744735 
-0.00247738 0.0298975 0.000744735 0.00050668 0.0249923 0.000744735 -0.00480389 0.0254027 0.000744735 
-0.0155033 0.0203259 0.000744735 -0.0119049 0.0231923 0.000744735 -0.0110301 0.0188699 0.000744735 
-0.0210329 -0.00857697 0.000744735 -0.0252385 -0.00663486 0.000744735 -0.0219391 -0.00367156 0.000744735 
0.00050668 0.0249923 0.000744735 -0.00306504 0.0210841 0.000744735 -0.00480389 0.0254027 0.000744735 
0.00756968 -0.0163985 0.000744735 0.0111119 -0.0129281 0.000744735 0.0120396 -0.017547 0.000744735 
0.0225248 0.019815 0.0232011 0.0194104 0.0228744 0.0207151 0.019454 0.0228373 0.0256889 
0.0287604 0.00853449 0.0157283 0.0272331 0.0125839 0.0182305 0.0287579 0.00854315 0.0207306 
0.0224647 0.0198831 0.0182094 0.0193501 0.0229254 0.0157589 0.0194104 0.0228744 0.0207151 
-0.0175293 -0.00534917 0.000744735 -0.0210329 -0.00857697 0.000744735 -0.0219391 -0.00367156 0.000744735 
0.0178597 0.0123767 0.000744735 0.0124538 0.0129968 0.000744735 0.0151607 0.0162574 0.000744735 
0.03 -7.34788e-18 0.0257447 0.0297128 -0.00414138 0.0282399 0.0297135 -0.00413601 0.0232735 
-0.0289154 0.00799358 0.030589 -0.0297591 0.00379443 0.0281028 -0.0297607 0.00378148 0.0330609 
0.00913157 -0.0285765 0.0180372 0.00492562 -0.0295929 0.0205444 0.00490989 -0.0295955 0.0155204 
-0.0189852 0.0170671 0.000744735 -0.0176812 0.0123146 0.000744735 -0.0220227 0.0136092 0.000744735 
0.0224647 0.0198831 0.0182094 0.0194104 0.0228744 0.0207151 0.0225248 0.019815 0.0232011 
0.0164569 -0.00110475 0.000744735 0.0214704 -0.00283669 0.000744735 0.0170352 -0.00513945 0.000744735 
0.015062 -0.00917333 0.000744735 0.0129972 -0.0046275 0.000744735 0.0170352 -0.00513945 0.000744735 
0.0287604 0.00853449 0.0157283 0.0287579 0.00854315 0.0207306 0.0296875 0.00431884 0.0182447 
-0.0287453 -0.00858536 0.0106625 -0.0288725 -0.00814748 0.00560481 -0.0271708 -0.012718 0.00810134 
-0.0152457 -0.0157881 0.000744735 -0.00987953 -0.0164218 0.000744735 -0.0123473 -0.0194528 0.000744735 
0.03 -7.34788e-18 0.0157447 0.0297087 -0.00417057 0.0135352 0.03 -7.34788e-18 0.0107447 
0.00450018 -0.0206173 0.000744735 0.00756968 -0.0163985 0.000744735 0.00891473 -0.0202971 0.000744735 
-0.00306504 0.0210841 0.000744735 -0.00640818 0.0176548 0.000744735 -0.0076627 0.0219387 0.000744735 
0.0231358 -0.0190981 0.0179868 0.0231666 -0.0190606 0.0130511 0.0256076 -0.0156285 0.0155153 
-0.000595274 -0.0186108 0.000744735 -9.41575e-05 -0.0230183 0.000744735 -0.0036895 -0.0211171 0.000744735 
-0.00809412 -0.0211818 0.000744735 -0.00528641 -0.0174878 0.000744735 -0.0036895 -0.0211171 0.000744735 
0.0272331 0.0125839 0.0182305 0.0251274 0.0163894 0.0207022 0.0272336 0.0125829 0.0232141 
0.0297135 -0.00413601 0.0232735 0.0297176 -0.00410653 0.018362 0.03 -7.34788e-18 0.0207447 
-0.0159919 -0.0205249 0.000744735 -0.0152457 -0.0157881 0.000744735 -0.0123473 -0.0194528 0.000744735 
-0.0230511 0.00103609 0.000744735 -0.0186531 -0.000485601 0.000744735 -0.0219391 -0.00367156 0.000744735 
0.0122843 0.0228125 0.000744735 0.0113385 0.0181284 0.000744735 0.00935195 0.0210524 0.000744735 
0.00911884 -0.0285805 0.0230236 0.00492562 -0.0295929 0.0205444 0.00913157 -0.0285765 0.0180372 
-0.0289126 0.00800396 0.0256294 -0.0297591 0.00379443 0.0281028 -0.0289154 0.00799358 0.030589 
-0.00640818 0.0176548 0.000744735 -0.00983278 0.0143111 0.000744735 -0.0110301 0.0188699 0.000744735 
-0.0254761 0.015842 0.025642 -0.0274774 0.0120413 0.0281174 -0.0254809 0.0158343 0.0305986 
-0.0199674 0.0223898 0.0306104 -0.0229574 0.0193121 0.0281247 -0.022962 0.0193067 0.0330853 
-0.00983278 0.0143111 0.000744735 -0.0131961 0.0109457 0.000744735 -0.0143728 0.0156392 0.000744735 
0.0251274 0.0163894 0.0207022 0.0224647 0.0198831 0.0182094 0.0225248 0.019815 0.0232011 
0.0256076 -0.0156285 0.0155153 0.0254329 -0.0159112 0.0107376 0.0277133 -0.011488 0.012768 
0.0223805 0.0199779 0.0132018 0.0193501 0.0229254 0.0157589 0.0224647 0.0198831 0.0182094 
0.0131134 -0.0269822 0.0205402 0.00913157 -0.0285765 0.0180372 0.0131403 -0.0269691 0.0155742 
0.0296875 0.00431884 0.0182447 0.029686 0.0043293 0.0232362 0.03 -7.34788e-18 0.0207447 
-9.41575e-05 -0.0230183 0.000744735 -0.00437754 -0.0252867 0.000744735 -0.0036895 -0.0211171 0.000744735 
-0.0289126 0.00800396 0.0256294 -0.0274774 0.0120413 0.0281174 -0.0274736 0.0120499 0.0231611 
0.0200699 -0.00761178 0.000744735 0.0248596 -0.00634908 0.000744735 0.023376 -0.0105655 0.000744735 
-0.0230511 0.00103609 0.000744735 -0.0219391 -0.00367156 0.000744735 -0.026125 -0.00201284 0.000744735 
-0.0152457 -0.0157881 0.000744735 -0.0159919 -0.0205249 0.000744735 -0.0192711 -0.0181234 0.000744735 
0.0251274 0.0163894 0.0207022 0.0225248 0.019815 0.0232011 0.025144 0.0163639 0.0256967 
-0.0165367 0.00759335 0.000744735 -0.0198826 0.00432235 0.000744735 -0.0209022 0.00905108 0.000744735 
-0.029997 -0.000423074 0.0158056 -0.029632 -0.0046846 0.018203 -0.0299964 -0.000462494 0.020681 
-0.00785235 -0.0289541 0.0280258 -0.00786309 -0.0289512 0.0230669 -0.00363806 -0.0297786 0.025536 
0.0111119 -0.0129281 0.000744735 0.0159555 -0.0144888 0.000744735 0.0120396 -0.017547 0.000744735 
0.0254585 0.00211549 0.000744735 0.0201589 0.00236947 0.000744735 0.0228419 0.00568166 0.000744735 
0.0272331 0.0125839 0.0182305 0.0272336 0.0125829 0.0232141 0.0287579 0.00854315 0.0207306 
-0.0198826 0.00432235 0.000744735 -0.0247613 0.00595337 0.000744735 -0.0209022 0.00905108 0.000744735 
0.02139 -0.0141683 0.000744735 0.0159555 -0.0144888 0.000744735 0.0184672 -0.0112631 0.000744735 
0.0225248 0.019815 0.0232011 0.019454 0.0228373 0.0256889 0.0225381 0.0197998 0.0281777 
-0.0175293 -0.00534917 0.000744735 -0.0165351 -0.0104289 0.000744735 -0.0210329 -0.00857697 0.000744735 
-0.0119063 -0.0275362 0.0305209 -0.0119095 -0.0275348 0.0255586 -0.00785235 -0.0289541 0.0280258 
-0.0131961 0.0109457 0.000744735 -0.0176812 0.0123146 0.000744735 -0.0143728 0.0156392 0.000744735 
0.0214704 -0.00283669 0.000744735 0.0248596 -0.00634908 0.000744735 0.0200699 -0.00761178 0.000744735 
0.0189144 0.00707811 0.000744735 0.0139478 0.00826628 0.000744735 0.0178597 0.0123767 0.000744735 
0.0139478 0.00826628 0.000744735 0.0124538 0.0129968 0.000744735 0.0178597 0.0123767 0.000744735 
-0.0289154 0.00799358 0.030589 -0.0274774 0.0120413 0.0281174 -0.0289126 0.00800396 0.0256294 
0.0120396 -0.017547 0.000744735 0.0123194 -0.0226331 0.000744735 0.00891473 -0.0202971 0.000744735 
0.0231666 -0.0190606 0.0130511 0.0254329 -0.0159112 0.0107376 0.0256076 -0.0156285 0.0155153 
-0.0229574 0.0193121 0.0281247 -0.0254809 0.0158343 0.0305986 -0.022962 0.0193067 0.0330853 
-0.0220227 0.0136092 0.000744735 -0.0209022 0.00905108 0.000744735 -0.024489 0.0105266 0.000744735 
0.0104845 0.00476988 0.000744735 0.00914902 0.00951011 0.000744735 0.0139478 0.00826628 0.000744735 
0.0297128 -0.00414138 0.0282399 0.0288525 -0.00821797 0.030677 0.0288533 -0.0082149 0.0256995 
0.023376 -0.0105655 0.000744735 0.02139 -0.0141683 0.000744735 0.0184672 -0.0112631 0.000744735 
0.0152921 0.00356892 0.000744735 0.0104845 0.00476988 0.000744735 0.0139478 0.00826628 0.000744735 
0.00914902 0.00951011 0.000744735 0.0124538 0.0129968 0.000744735 0.0139478 0.00826628 0.000744735 
0.019454 0.0228373 0.0256889 0.0159468 0.0254106 0.023202 0.015987 0.0253853 0.028169 
0.0189144 0.00707811 0.000744735 0.0152921 0.00356892 0.000744735 0.0139478 0.00826628 0.000744735 
0.0251274 0.0163894 0.0207022 0.025144 0.0163639 0.0256967 0.0272336 0.0125829 0.0232141 
0.019454 0.0228373 0.0256889 0.015987 0.0253853 0.028169 0.0194616 0.0228308 0.0306565 
0.0131403 -0.0269691 0.0155742 0.0131895 -0.0269451 0.010607 0.0168138 -0.0248454 0.0130785 
0.0111119 -0.0129281 0.000744735 0.00630495 -0.0117307 0.000744735 0.00979689 -0.0081546 0.000744735 
0.019454 0.0228373 0.0256889 0.0194616 0.0228308 0.0306565 0.0225381 0.0197998 0.0281777 
0.03 -7.34788e-18 0.0157447 0.0296875 0.00431884 0.0182447 0.03 -7.34788e-18 0.0207447 
0.00979689 -0.0081546 0.000744735 0.0129972 -0.0046275 0.000744735 0.015062 -0.00917333 0.000744735 
0.0111119 -0.0129281 0.000744735 0.00979689 -0.0081546 0.000744735 0.015062 -0.00917333 0.000744735 
0.0272336 0.0125829 0.0232141 0.0272358 0.0125782 0.0281866 0.0287571 0.00854579 0.0257125 
0.00358503 -0.00228145 0.000744735 0.00702628 0.00124848 0.000744735 0.00835543 -0.00346515 0.000744735 
0.0113385 0.0181284 0.000744735 0.0157653 0.0203057 0.000744735 0.0151607 0.0162574 0.000744735 
0.00913157 -0.0285765 0.0180372 0.00919592 -0.0285558 0.01298 0.0131403 -0.0269691 0.0155742 
0.0194104 0.0228744 0.0207151 0.0158958 0.0254425 0.0182522 0.0159468 0.0254106 0.023202 
-0.0299961 -0.000481185 0.0256226 -0.0297591 0.00379443 0.0281028 -0.0297578 0.00380405 0.0231468 
0.0225248 0.019815 0.0232011 0.0225381 0.0197998 0.0281777 0.025144 0.0163639 0.0256967 
0.03 -7.34788e-18 0.0257447 0.0297135 -0.00413601 0.0232735 0.03 -7.34788e-18 0.0207447 
0.00630495 -0.0117307 0.000744735 0.00495016 -0.0070021 0.000744735 0.00979689 -0.0081546 0.000744735 
0.015987 0.0253853 0.028169 0.0121858 0.0274136 0.0306517 0.015983 0.0253879 0.033137 
0.00702628 0.00124848 0.000744735 0.0117816 4.48598e-05 0.000744735 0.00835543 -0.00346515 0.000744735 
0.00495016 -0.0070021 0.000744735 0.00358503 -0.00228145 0.000744735 0.00835543 -0.00346515 0.000744735 
0.03 -7.34788e-18 0.0207447 0.0297176 -0.00410653 0.018362 0.03 -7.34788e-18 0.0157447 
0.0131134 -0.0269822 0.0205402 0.0131403 -0.0269691 0.0155742 0.0168149 -0.0248447 0.0180375 
-0.0299964 -0.000462494 0.020681 -0.029632 -0.0046846 0.018203 -0.029623 -0.00474124 0.0231425 
0.0117816 4.48598e-05 0.000744735 0.0129972 -0.0046275 0.000744735 0.00835543 -0.00346515 0.000744735 
0.0111119 -0.0129281 0.000744735 0.015062 -0.00917333 0.000744735 0.0159555 -0.0144888 0.000744735 
0.00170261 0.0199253 0.000744735 -0.00171542 0.0165759 0.000744735 -0.00306504 0.0210841 0.000744735 
-0.00171542 0.0165759 0.000744735 -0.00640818 0.0176548 0.000744735 -0.00306504 0.0210841 0.000744735 
-0.0126937 0.0271821 0.0155881 -0.0165482 0.0250231 0.0181913 -0.0127745 0.0271443 0.0206634 
0.00170261 0.0199253 0.000744735 0.00305038 0.0154113 0.000744735 -0.00171542 0.0165759 0.000744735 
0.015987 0.0253853 0.028169 0.015983 0.0253879 0.033137 0.0194616 0.0228308 0.0306565 
0.00305038 0.0154113 0.000744735 -0.000388486 0.0119076 0.000744735 -0.00171542 0.0165759 0.000744735 
-0.0051264 0.0130917 0.000744735 -0.00640818 0.0176548 0.000744735 -0.00171542 0.0165759 0.000744735 
0.03 -7.34788e-18 0.0307447 0.0297128 -0.00414138 0.0282399 0.03 -7.34788e-18 0.0257447 
0.00305038 0.0154113 0.000744735 0.00437898 0.0107297 0.000744735 -0.000388486 0.0119076 0.000744735 
0.00437898 0.0107297 0.000744735 0.000927363 0.00719508 0.000744735 -0.000388486 0.0119076 0.000744735 
-0.000388486 0.0119076 0.000744735 -0.0051264 0.0130917 0.000744735 -0.00171542 0.0165759 0.000744735 
0.000927363 0.00719508 0.000744735 -0.0038409 0.00840691 0.000744735 -0.000388486 0.0119076 0.000744735 
0.03 -7.34788e-18 0.0257447 0.0296875 0.00431884 0.0282447 0.03 -7.34788e-18 0.0307447 
-0.0038409 0.00840691 0.000744735 -0.0051264 0.0130917 0.000744735 -0.000388486 0.0119076 0.000744735 
0.00224885 0.00245636 0.000744735 -0.00253304 0.00367461 0.000744735 0.000927363 0.00719508 0.000744735 
0.00437898 0.0107297 0.000744735 0.0057057 0.00598784 0.000744735 0.000927363 0.00719508 0.000744735 
0.0057057 0.00598784 0.000744735 0.00224885 0.00245636 0.000744735 0.000927363 0.00719508 0.000744735 
-0.00253304 0.00367461 0.000744735 -0.0038409 0.00840691 0.000744735 0.000927363 0.00719508 0.000744735 
0.0113385 0.0181284 0.000744735 0.0078412 0.0143448 0.000744735 0.00649523 0.0189422 0.000744735 
0.0078412 0.0143448 0.000744735 0.00305038 0.0154113 0.000744735 0.00649523 0.0189422 0.000744735 
0.00630495 -0.0117307 0.000744735 0.00151338 -0.0105529 0.000744735 0.00495016 -0.0070021 0.000744735 
0.03 -7.34788e-18 0.0107447 0.0296879 0.00431603 0.0132398 0.03 -7.34788e-18 0.0157447 
0.00649523 0.0189422 0.000744735 0.00305038 0.0154113 0.000744735 0.00170261 0.0199253 0.000744735 
-0.00328617 -0.00934559 0.000744735 -0.00464997 -0.00460866 0.000744735 0.000148391 -0.0058171 0.000744735 
-0.0299958 -0.000498983 0.0305779 -0.0297591 0.00379443 0.0281028 -0.0299961 -0.000481185 0.0256226 
0.000148391 -0.0058171 0.000744735 0.00358503 -0.00228145 0.000744735 0.00495016 -0.0070021 0.000744735 
-0.00464997 -0.00460866 0.000744735 -0.00120231 -0.0010755 0.000744735 0.000148391 -0.0058171 0.000744735 
0.00151338 -0.0105529 0.000744735 -0.00328617 -0.00934559 0.000744735 0.000148391 -0.0058171 0.000744735 
-0.0165492 0.0250225 0.0132679 -0.0165482 0.0250231 0.0181913 -0.0126937 0.0271821 0.0155881 
-0.00120231 -0.0010755 0.000744735 0.00358503 -0.00228145 0.000744735 0.000148391 -0.0058171 0.000744735 
0.00151338 -0.0105529 0.000744735 0.000148391 -0.0058171 0.000744735 0.00495016 -0.0070021 0.000744735 
0.0078534 0.0289538 0.0133149 0.00371136 0.0297695 0.0108782 0.0037865 0.0297601 0.0158382 
-0.00788936 -0.0289441 0.0132602 -0.00385588 -0.0297512 0.0106491 -0.00372595 -0.0297677 0.015627 
0.00911884 -0.0285805 0.0230236 0.00913157 -0.0285765 0.0180372 0.0131134 -0.0269822 0.0205402 
-0.0116124 -0.0117373 0.000744735 -0.0129013 -0.00692497 0.000744735 -0.00812738 -0.00816729 0.000744735 
-0.0141047 -0.0019928 0.000744735 -0.0107428 0.00140721 0.000744735 -0.00943154 -0.00337269 0.000744735 
-0.00855295 0.00964356 0.000744735 -0.0131961 0.0109457 0.000744735 -0.00983278 0.0143111 0.000744735 
-0.0051264 0.0130917 0.000744735 -0.00855295 0.00964356 0.000744735 -0.00983278 0.0143111 0.000744735 
-0.00363806 -0.0297786 0.025536 -0.00366495 -0.0297753 0.0205756 0.000648215 -0.029993 0.0230435 
-0.0051264 0.0130917 0.000744735 -0.00983278 0.0143111 0.000744735 -0.00640818 0.0176548 0.000744735 
-0.00943154 -0.00337269 0.000744735 -0.00464997 -0.00460866 0.000744735 -0.00812738 -0.00816729 0.000744735 
-0.00668676 -0.0128729 0.000744735 -0.0116124 -0.0117373 0.000744735 -0.00812738 -0.00816729 0.000744735 
-0.0270698 -0.0129316 0.0231191 -0.0270639 -0.012944 0.0280807 -0.0286384 -0.00893529 0.0256083 
-0.0107428 0.00140721 0.000744735 -0.00598711 0.000149091 0.000744735 -0.00943154 -0.00337269 0.000744735 
-0.0129013 -0.00692497 0.000744735 -0.0141047 -0.0019928 0.000744735 -0.00943154 -0.00337269 0.000744735 
0.000666027 -0.0299926 0.0329756 0.000658684 -0.0299928 0.02801 0.00494349 -0.0295899 0.030485 
-0.00598711 0.000149091 0.000744735 -0.00464997 -0.00460866 0.000744735 -0.00943154 -0.00337269 0.000744735 
-0.0120054 0.00619111 0.000744735 -0.0131961 0.0109457 0.000744735 -0.00855295 0.00964356 0.000744735 
0.00151338 -0.0105529 0.000744735 -0.00190874 -0.0140446 0.000744735 -0.00328617 -0.00934559 0.000744735 
-0.0038409 0.00840691 0.000744735 -0.00855295 0.00964356 0.000744735 -0.0051264 0.0130917 0.000744735 
0.000658684 -0.0299928 0.02801 0.000648215 -0.029993 0.0230435 0.00493704 -0.029591 0.0255179 
-0.0072933 0.0049091 0.000744735 -0.0120054 0.00619111 0.000744735 -0.00855295 0.00964356 0.000744735 
-0.0038409 0.00840691 0.000744735 -0.0072933 0.0049091 0.000744735 -0.00855295 0.00964356 0.000744735 
-0.00366495 -0.0297753 0.0205756 -0.00372595 -0.0297677 0.015627 0.000599139 -0.029994 0.0180659 
0.000508707 -0.0299957 0.0130509 -0.00385588 -0.0297512 0.0106491 0.000157307 -0.0299996 0.0080593 
-0.0129013 -0.00692497 0.000744735 -0.00943154 -0.00337269 0.000744735 -0.00812738 -0.00816729 0.000744735 
-0.00190874 -0.0140446 0.000744735 -0.00668676 -0.0128729 0.000744735 -0.00328617 -0.00934559 0.000744735 
-0.0153383 0.00282112 0.000744735 -0.0186531 -0.000485601 0.000744735 -0.0198826 0.00432235 0.000744735 
-0.00787846 -0.028947 0.0181179 -0.00788936 -0.0289441 0.0132602 -0.00372595 -0.0297677 0.015627 
0.000508707 -0.0299957 0.0130509 0.000157307 -0.0299996 0.0080593 0.00489992 -0.0295971 0.0103526 
0.000658684 -0.0299928 0.02801 -0.00363806 -0.0297786 0.025536 0.000648215 -0.029993 0.0230435 
0.0131403 -0.0269691 0.0155742 0.0168138 -0.0248454 0.0130785 0.0168149 -0.0248447 0.0180375 
-0.0165367 0.00759335 0.000744735 -0.0153383 0.00282112 0.000744735 -0.0198826 0.00432235 0.000744735 
-0.0198826 0.00432235 0.000744735 -0.0186531 -0.000485601 0.000744735 -0.0230511 0.00103609 0.000744735 
-0.00464997 -0.00460866 0.000744735 -0.00328617 -0.00934559 0.000744735 -0.00812738 -0.00816729 0.000744735 
-0.000595274 -0.0186108 0.000744735 0.00450018 -0.0206173 0.000744735 -9.41575e-05 -0.0230183 0.000744735 
0.0263842 -0.0142784 0.000744735 0.0236742 -0.0184264 0.000744735 0.02139 -0.0141683 0.000744735 
-0.0254809 0.0158343 0.0305986 -0.0274774 0.0120413 0.0281174 -0.0274811 0.0120328 0.0330741 
-0.000595274 -0.0186108 0.000744735 0.00289521 -0.0153307 0.000744735 0.00450018 -0.0206173 0.000744735 
0.00736456 0.029082 0.000744735 0.0120509 0.0274732 0.000744735 0.00844368 0.024816 0.000744735 
-0.00366495 -0.0297753 0.0205756 -0.00787846 -0.028947 0.0181179 -0.00372595 -0.0297677 0.015627 
-0.0286333 -0.00895171 0.0305655 -0.0270639 -0.012944 0.0280807 -0.0270589 -0.0129544 0.0330388 
-0.0236742 -0.0184264 0.000744735 -0.0263842 -0.0142784 0.000744735 -0.0210811 -0.013826 0.000744735 
-0.00528641 -0.0174878 0.000744735 -0.00190874 -0.0140446 0.000744735 -0.000595274 -0.0186108 0.000744735 
-0.00987953 -0.0164218 0.000744735 -0.0116124 -0.0117373 0.000744735 -0.00668676 -0.0128729 0.000744735 
-0.00456663 0.0296504 0.0157701 -0.00461575 0.0296428 0.0108044 -0.00853274 0.028761 0.0132394 
-0.0236742 0.0184264 0.000744735 -0.0203184 0.0220717 0.000744735 -0.0189852 0.0170671 0.000744735 
0.00289521 -0.0153307 0.000744735 0.00756968 -0.0163985 0.000744735 0.00450018 -0.0206173 0.000744735 
0.03 -7.34788e-18 0.0307447 0.0297233 -0.00406542 0.0332065 0.0297128 -0.00414138 0.0282399 
0.00289521 -0.0153307 0.000744735 -0.00190874 -0.0140446 0.000744735 0.00151338 -0.0105529 0.000744735 
0.0037865 0.0297601 0.0158382 0.00371136 0.0297695 0.0108782 -0.000422135 0.029997 0.0135002 
-0.000595274 -0.0186108 0.000744735 -0.00190874 -0.0140446 0.000744735 0.00289521 -0.0153307 0.000744735 
-0.000422135 0.029997 0.0135002 -0.00461575 0.0296428 0.0108044 -0.00456663 0.0296504 0.0157701 
-0.00787846 -0.028947 0.0181179 -0.011914 -0.0275328 0.015564 -0.00788936 -0.0289441 0.0132602 
-0.00366495 -0.0297753 0.0205756 0.000599139 -0.029994 0.0180659 0.000648215 -0.029993 0.0230435 
-0.00372595 -0.0297677 0.015627 0.000508707 -0.0299957 0.0130509 0.000599139 -0.029994 0.0180659 
-0.00528641 -0.0174878 0.000744735 -0.00668676 -0.0128729 0.000744735 -0.00190874 -0.0140446 0.000744735 
-0.00987953 -0.0164218 0.000744735 -0.00668676 -0.0128729 0.000744735 -0.00528641 -0.0174878 0.000744735 
0.0201962 -0.0221837 0.0205168 0.0201941 -0.0221856 0.0153815 0.0231358 -0.0190981 0.0179868 
0.000658684 -0.0299928 0.02801 0.00493704 -0.029591 0.0255179 0.00494349 -0.0295899 0.030485 
-0.0286384 -0.00893529 0.0256083 -0.0270639 -0.012944 0.0280807 -0.0286333 -0.00895171 0.0305655 
-0.0295908 0.00493784 0.000744735 -0.0283745 0.00974098 0.000744735 -0.0247613 0.00595337 0.000744735 
-0.011914 -0.0275328 0.015564 -0.0119911 -0.0274993 0.0100089 -0.00788936 -0.0289441 0.0132602 
-0.00247738 0.0298975 0.000744735 0.00247738 0.0298975 0.000744735 0.00050668 0.0249923 0.000744735 
0.00289521 -0.0153307 0.000744735 0.00630495 -0.0117307 0.000744735 0.00756968 -0.0163985 0.000744735 
-0.00987953 -0.0164218 0.000744735 -0.00528641 -0.0174878 0.000744735 -0.00809412 -0.0211818 0.000744735 
0.00756968 -0.0163985 0.000744735 0.00630495 -0.0117307 0.000744735 0.0111119 -0.0129281 0.000744735 
0.00289521 -0.0153307 0.000744735 0.00151338 -0.0105529 0.000744735 0.00630495 -0.0117307 0.000744735 
0.0203184 0.0220717 0.000744735 0.0236742 0.0184264 0.000744735 0.0190979 0.0173202 0.000744735 
-0.00247738 -0.0298975 0.000744735 -0.00736456 -0.029082 0.000744735 -0.00437754 -0.0252867 0.000744735 
0.0203184 -0.0220717 0.000744735 0.0164084 -0.025115 0.000744735 0.0157279 -0.0202072 0.000744735 
0.0120509 -0.0274732 0.000744735 0.00736456 -0.029082 0.000744735 0.00814478 -0.0242894 0.000744735 
-0.0152457 -0.0157881 0.000744735 -0.0116124 -0.0117373 0.000744735 -0.00987953 -0.0164218 0.000744735 
0.0263842 0.0142784 0.000744735 0.0283745 0.00974098 0.000744735 0.0233864 0.0102056 0.000744735 
-0.0254761 0.015842 0.025642 -0.0254809 0.0158343 0.0305986 -0.0229574 0.0193121 0.0281247 
-0.0283745 -0.00974098 0.000744735 -0.0295908 -0.00493784 0.000744735 -0.0252385 -0.00663486 0.000744735 
-0.0164084 0.025115 0.000744735 -0.0120509 0.0274732 0.000744735 -0.0119049 0.0231923 0.000744735 
-0.0164084 -0.025115 0.000744735 -0.0203184 -0.0220717 0.000744735 -0.0159919 -0.0205249 0.000744735 
0.0295908 0.00493784 0.000744735 0.03 -7.34788e-18 0.000744735 0.0254585 0.00211549 0.000744735 
0.0295908 -0.00493784 0.000744735 0.0283745 -0.00974098 0.000744735 0.0248596 -0.00634908 0.000744735 
-0.0165351 -0.0104289 0.000744735 -0.0116124 -0.0117373 0.000744735 -0.0152457 -0.0157881 0.000744735 
-0.0165351 -0.0104289 0.000744735 -0.0129013 -0.00692497 0.000744735 -0.0116124 -0.0117373 0.000744735 
-0.0175293 -0.00534917 0.000744735 -0.0129013 -0.00692497 0.000744735 -0.0165351 -0.0104289 0.000744735 
-0.0175293 -0.00534917 0.000744735 -0.0141047 -0.0019928 0.000744735 -0.0129013 -0.00692497 0.000744735 
-0.0186531 -0.000485601 0.000744735 -0.0141047 -0.0019928 0.000744735 -0.0175293 -0.00534917 0.000744735 
-0.00871042 0.0287076 0.0182212 -0.0126937 0.0271821 0.0155881 -0.0127745 0.0271443 0.0206634 
-0.0131961 0.0109457 0.000744735 -0.0165367 0.00759335 0.000744735 -0.0176812 0.0123146 0.000744735 
-0.0153383 0.00282112 0.000744735 -0.0141047 -0.0019928 0.000744735 -0.0186531 -0.000485601 0.000744735 
-0.0120054 0.00619111 0.000744735 -0.0165367 0.00759335 0.000744735 -0.0131961 0.0109457 0.000744735 
-0.0120054 0.00619111 0.000744735 -0.0153383 0.00282112 0.000744735 -0.0165367 0.00759335 0.000744735 
-0.0127745 0.0271443 0.0206634 -0.0165482 0.0250231 0.0181913 -0.0165507 0.0250215 0.0231644 
-0.0153383 0.00282112 0.000744735 -0.0107428 0.00140721 0.000744735 -0.0141047 -0.0019928 0.000744735 
-0.0120054 0.00619111 0.000744735 -0.0107428 0.00140721 0.000744735 -0.0153383 0.00282112 0.000744735 
-0.00372595 -0.0297677 0.015627 -0.00385588 -0.0297512 0.0106491 0.000508707 -0.0299957 0.0130509 
-0.0072933 0.0049091 0.000744735 -0.0107428 0.00140721 0.000744735 -0.0120054 0.00619111 0.000744735 
-0.00253304 0.00367461 0.000744735 -0.0072933 0.0049091 0.000744735 -0.0038409 0.00840691 0.000744735 
-0.0072933 0.0049091 0.000744735 -0.00598711 0.000149091 0.000744735 -0.0107428 0.00140721 0.000744735 
-0.00253304 0.00367461 0.000744735 -0.00598711 0.000149091 0.000744735 -0.0072933 0.0049091 0.000744735 
-0.0157275 -0.0255469 0.0181116 -0.0192 -0.0230512 0.01565 -0.0157306 -0.025545 0.0131488 
0.00490989 -0.0295955 0.0155204 0.00492562 -0.0295929 0.0205444 0.000599139 -0.029994 0.0180659 
0.015987 0.0253853 0.028169 0.0121525 0.0274284 0.0256894 0.0121858 0.0274136 0.0306517 
-0.00598711 0.000149091 0.000744735 -0.00120231 -0.0010755 0.000744735 -0.00464997 -0.00460866 0.000744735 
-0.00328617 -0.00934559 0.000744735 -0.00668676 -0.0128729 0.000744735 -0.00812738 -0.00816729 0.000744735 
-0.011914 -0.0275328 0.015564 -0.0157275 -0.0255469 0.0181116 -0.0157306 -0.025545 0.0131488 
-0.00253304 0.00367461 0.000744735 -0.00120231 -0.0010755 0.000744735 -0.00598711 0.000149091 0.000744735 
-0.00363806 -0.0297786 0.025536 -0.00786309 -0.0289512 0.0230669 -0.00366495 -0.0297753 0.0205756 
-0.00456663 0.0296504 0.0157701 -0.00853274 0.028761 0.0132394 -0.00871042 0.0287076 0.0182212 
0.0124538 0.0129968 0.000744735 0.0078412 0.0143448 0.000744735 0.0113385 0.0181284 0.000744735 
-0.024938 -0.0166762 0.0255932 -0.0270639 -0.012944 0.0280807 -0.0270698 -0.0129316 0.0231191 
0.00224885 0.00245636 0.000744735 -0.00120231 -0.0010755 0.000744735 -0.00253304 0.00367461 0.000744735 
-0.011914 -0.0275328 0.015564 -0.0157306 -0.025545 0.0131488 -0.0119911 -0.0274993 0.0100089 
-0.0274685 0.0120615 0.0182281 -0.0254673 0.0158561 0.0157336 -0.0274537 0.0120952 0.0133685 
0.0078412 0.0143448 0.000744735 0.00437898 0.0107297 0.000744735 0.00305038 0.0154113 0.000744735 
-0.0192 -0.0230512 0.01565 -0.0192177 -0.0230365 0.0106768 -0.0157306 -0.025545 0.0131488 
-0.0229688 0.0192985 0.013322 -0.0253407 0.0160578 0.0108315 -0.0254673 0.0158561 0.0157336 
0.00914902 0.00951011 0.000744735 0.0078412 0.0143448 0.000744735 0.0124538 0.0129968 0.000744735 
0.00224885 0.00245636 0.000744735 0.00358503 -0.00228145 0.000744735 -0.00120231 -0.0010755 0.000744735 
0.00914902 0.00951011 0.000744735 0.00437898 0.0107297 0.000744735 0.0078412 0.0143448 0.000744735 
0.00914902 0.00951011 0.000744735 0.0057057 0.00598784 0.000744735 0.00437898 0.0107297 0.000744735 
0.00224885 0.00245636 0.000744735 0.00702628 0.00124848 0.000744735 0.00358503 -0.00228145 0.000744735 
0.00835543 -0.00346515 0.000744735 0.0129972 -0.0046275 0.000744735 0.00979689 -0.0081546 0.000744735 
0.0057057 0.00598784 0.000744735 0.00702628 0.00124848 0.000744735 0.00224885 0.00245636 0.000744735 
0.00392991 0.0297415 0.0306454 -0.000349677 0.029998 0.0281639 -0.000357296 0.0299979 0.0331183 
0.0104845 0.00476988 0.000744735 0.0057057 0.00598784 0.000744735 0.00914902 0.00951011 0.000744735 
0.0104845 0.00476988 0.000744735 0.00702628 0.00124848 0.000744735 0.0057057 0.00598784 0.000744735 
0.0104845 0.00476988 0.000744735 0.0117816 4.48598e-05 0.000744735 0.00702628 0.00124848 0.000744735 
-0.0254673 0.0158561 0.0157336 -0.0253407 0.0160578 0.0108315 -0.0274537 0.0120952 0.0133685 
-0.0143728 0.0156392 0.000744735 -0.0189852 0.0170671 0.000744735 -0.0155033 0.0203259 0.000744735 
0.0152921 0.00356892 0.000744735 0.0117816 4.48598e-05 0.000744735 0.0104845 0.00476988 0.000744735 
0.0117816 4.48598e-05 0.000744735 0.0164569 -0.00110475 0.000744735 0.0129972 -0.0046275 0.000744735 
0.00495016 -0.0070021 0.000744735 0.00835543 -0.00346515 0.000744735 0.00979689 -0.0081546 0.000744735 
-0.0176812 0.0123146 0.000744735 -0.0189852 0.0170671 0.000744735 -0.0143728 0.0156392 0.000744735 
0.0152921 0.00356892 0.000744735 0.0164569 -0.00110475 0.000744735 0.0117816 4.48598e-05 0.000744735 
-0.0254724 0.0158479 0.0206846 -0.0254673 0.0158561 0.0157336 -0.0274685 0.0120615 0.0182281 
0.0201589 0.00236947 0.000744735 0.0152921 0.00356892 0.000744735 0.0189144 0.00707811 0.000744735 
-0.0176812 0.0123146 0.000744735 -0.0209022 0.00905108 0.000744735 -0.0220227 0.0136092 0.000744735 
0.0120396 -0.017547 0.000744735 0.0157279 -0.0202072 0.000744735 0.0123194 -0.0226331 0.000744735 
-0.00853274 0.028761 0.0132394 -0.0126937 0.0271821 0.0155881 -0.00871042 0.0287076 0.0182212 
-0.0128028 0.027131 0.0256547 -0.0165507 0.0250215 0.0231644 -0.0165617 0.0250142 0.0281363 
0.0201589 0.00236947 0.000744735 0.0164569 -0.00110475 0.000744735 0.0152921 0.00356892 0.000744735 
0.0189144 0.00707811 0.000744735 0.0233864 0.0102056 0.000744735 0.0228419 0.00568166 0.000744735 
-0.0119049 0.0231923 0.000744735 -0.0076627 0.0219387 0.000744735 -0.0110301 0.0188699 0.000744735 
0.0159555 -0.0144888 0.000744735 0.02139 -0.0141683 0.000744735 0.0193677 -0.0178292 0.000744735 
0.00050668 0.0249923 0.000744735 0.00475217 0.0262618 0.000744735 0.0049706 0.0224562 0.000744735 
0.0200699 -0.00761178 0.000744735 0.023376 -0.0105655 0.000744735 0.0184672 -0.0112631 0.000744735 
-0.0143728 0.0156392 0.000744735 -0.0155033 0.0203259 0.000744735 -0.0110301 0.0188699 0.000744735 
0.0190979 0.0173202 0.000744735 0.0178597 0.0123767 0.000744735 0.0151607 0.0162574 0.000744735 
0.015062 -0.00917333 0.000744735 0.0200699 -0.00761178 0.000744735 0.0184672 -0.0112631 0.000744735 
-0.0165507 0.0250215 0.0231644 -0.0199638 0.022393 0.0206893 -0.0199627 0.022394 0.0256498 
-0.0222981 -0.0200697 0.0231057 -0.0222962 -0.0200718 0.0181286 -0.0192045 -0.0230475 0.0206191 
0.00814478 -0.0242894 0.000744735 0.00450018 -0.0206173 0.000744735 0.00891473 -0.0202971 0.000744735 
-9.41575e-05 -0.0230183 0.000744735 0.00450018 -0.0206173 0.000744735 0.00371169 -0.0256228 0.000744735 
0.0201589 0.00236947 0.000744735 0.0214704 -0.00283669 0.000744735 0.0164569 -0.00110475 0.000744735 
0.0200699 -0.00761178 0.000744735 0.015062 -0.00917333 0.000744735 0.0170352 -0.00513945 0.000744735 
-0.0076627 0.0219387 0.000744735 -0.00640818 0.0176548 0.000744735 -0.0110301 0.0188699 0.000744735 
-0.0199638 0.022393 0.0206893 -0.0229508 0.01932 0.0182183 -0.0229534 0.0193168 0.0231686 
0.0157279 -0.0202072 0.000744735 0.0159555 -0.0144888 0.000744735 0.0193677 -0.0178292 0.000744735 
0.00170261 0.0199253 0.000744735 0.00050668 0.0249923 0.000744735 0.0049706 0.0224562 0.000744735 
0.0157653 0.0203057 0.000744735 0.0113385 0.0181284 0.000744735 0.0122843 0.0228125 0.000744735 
0.00050668 0.0249923 0.000744735 0.00170261 0.0199253 0.000744735 -0.00306504 0.0210841 0.000744735 
0.0159555 -0.0144888 0.000744735 0.0157279 -0.0202072 0.000744735 0.0120396 -0.017547 0.000744735 
-0.0247613 0.00595337 0.000744735 -0.0230511 0.00103609 0.000744735 -0.0269306 0.00213112 0.000744735 
0.0178597 0.0123767 0.000744735 0.0190979 0.0173202 0.000744735 0.0220564 0.0145128 0.000744735 
-0.0165507 0.0250215 0.0231644 -0.0199627 0.022394 0.0256498 -0.0165617 0.0250142 0.0281363 
-0.0128028 0.027131 0.0256547 -0.0127745 0.0271443 0.0206634 -0.0165507 0.0250215 0.0231644 
-0.0199921 0.0223677 0.015679 -0.0229688 0.0192985 0.013322 -0.0229508 0.01932 0.0182183 
-0.0199638 0.022393 0.0206893 -0.0229534 0.0193168 0.0231686 -0.0199627 0.022394 0.0256498 
-0.00809412 -0.0211818 0.000744735 -0.00437754 -0.0252867 0.000744735 -0.00884013 -0.0252871 0.000744735 
-0.00437754 -0.0252867 0.000744735 -0.00809412 -0.0211818 0.000744735 -0.0036895 -0.0211171 0.000744735 
-0.0192 -0.0230512 0.01565 -0.0222638 -0.0201078 0.0131512 -0.0192177 -0.0230365 0.0106768 
-0.0165351 -0.0104289 0.000744735 -0.0210811 -0.013826 0.000744735 -0.0210329 -0.00857697 0.000744735 
-0.0128226 0.0271216 0.0306219 -0.0165617 0.0250142 0.0281363 -0.0165704 0.0250085 0.0330965 
0.00450018 -0.0206173 0.000744735 0.00814478 -0.0242894 0.000744735 0.00371169 -0.0256228 0.000744735 
-0.0247613 0.00595337 0.000744735 -0.0198826 0.00432235 0.000744735 -0.0230511 0.00103609 0.000744735 
0.0233864 0.0102056 0.000744735 0.0178597 0.0123767 0.000744735 0.0220564 0.0145128 0.000744735 
0.0254585 0.00211549 0.000744735 0.0262759 -0.00240162 0.000744735 0.0214704 -0.00283669 0.000744735 
-0.0210811 -0.013826 0.000744735 -0.0152457 -0.0157881 0.000744735 -0.0192711 -0.0181234 0.000744735 
-0.0222638 -0.0201078 0.0131512 -0.0220848 -0.0203042 0.00809767 -0.0192177 -0.0230365 0.0106768 
-0.024938 -0.0166762 0.0255932 -0.0249409 -0.0166719 0.020619 -0.0222981 -0.0200697 0.0231057 
-0.0165617 0.0250142 0.0281363 -0.0199674 0.0223898 0.0306104 -0.0165704 0.0250085 0.0330965 
0.0233864 0.0102056 0.000744735 0.0189144 0.00707811 0.000744735 0.0178597 0.0123767 0.000744735 
-0.0119139 -0.0275329 0.0205813 -0.0157275 -0.0255469 0.0181116 -0.011914 -0.0275328 0.015564 
0.0254585 0.00211549 0.000744735 0.0214704 -0.00283669 0.000744735 0.0201589 0.00236947 0.000744735 
-0.0223018 -0.0200657 0.0280683 -0.0222981 -0.0200697 0.0231057 -0.019207 -0.0230454 0.0255813 
-0.0199638 0.022393 0.0206893 -0.0199921 0.0223677 0.015679 -0.0229508 0.01932 0.0182183 
-0.0210811 -0.013826 0.000744735 -0.0165351 -0.0104289 0.000744735 -0.0152457 -0.0157881 0.000744735 
-0.000625354 0.0299935 0.00913367 0.00247738 0.0298975 0.00757917 -1.49662e-14 0.03 0.00503446 
0.0231358 -0.0190981 0.0179868 0.0256076 -0.0156285 0.0155153 0.0255524 -0.0157187 0.0204668 
-0.0298975 0.00247738 0.0042211 -0.0299998 0.000100872 0.00745822 -0.0297561 0.00381799 0.00827593 
0.000599139 -0.029994 0.0180659 0.00492562 -0.0295929 0.0205444 0.000648215 -0.029993 0.0230435 
-0.0199921 0.0223677 0.015679 -0.0201231 0.02225 0.0098748 -0.0229688 0.0192985 0.013322 
-0.0223018 -0.0200657 0.0280683 -0.024938 -0.0166762 0.0255932 -0.0222981 -0.0200697 0.0231057 
0.0289195 -0.007979 0.0159737 0.0290063 -0.00765723 0.0118795 0.0297087 -0.00417057 0.0135352 
0.0285006 -0.00936554 0.00882786 0.0270287 -0.0130173 0.00844654 0.0274732 -0.0120509 0.00503446 
-0.0128226 0.0271216 0.0306219 -0.0128028 0.027131 0.0256547 -0.0165617 0.0250142 0.0281363 
0.0277133 -0.011488 0.012768 0.0290063 -0.00765723 0.0118795 0.0289195 -0.007979 0.0159737 
0.0285006 -0.00936554 0.00882786 0.0290063 -0.00765723 0.0118795 0.0277133 -0.011488 0.012768 
-0.0270698 -0.0129316 0.0231191 -0.027085 -0.0128997 0.0181242 -0.0249409 -0.0166719 0.020619 
-1.49662e-14 0.03 0.00503446 0.00247738 0.0298975 0.00757917 0.00494465 0.0295897 0.00500584 
-0.024938 -0.0166762 0.0255932 -0.0270698 -0.0129316 0.0231191 -0.0249409 -0.0166719 0.020619 
0.029082 -0.00736456 0.00503446 0.029756 -0.00381809 0.00444402 0.0295896 -0.00494546 0.00856872 
-0.0297561 0.00381799 0.00827593 -0.0299998 0.000100872 0.00745822 -0.029998 -0.000345801 0.0112561 
0.0295908 -0.00493784 0.000744735 0.029756 -0.00381809 0.00444402 0.029082 -0.00736456 0.00503446 
-0.0299026 -0.00241541 0.00478185 -0.0299998 0.000100872 0.00745822 -0.0298975 0.00247738 0.0042211 
0.00371136 0.0297695 0.0108782 0.00247738 0.0298975 0.00757917 -0.000625354 0.0299935 0.00913367 
-0.0229508 0.01932 0.0182183 -0.0254724 0.0158479 0.0206846 -0.0229534 0.0193168 0.0231686 
0.03 -7.34788e-18 0.00574474 0.0297216 0.00407725 0.00470627 0.0296875 0.00431884 0.00824474 
-0.0222981 -0.0200697 0.0231057 -0.0192045 -0.0230475 0.0206191 -0.019207 -0.0230454 0.0255813 
-0.0222976 -0.0200703 0.0330255 -0.0223018 -0.0200657 0.0280683 -0.0192072 -0.0230453 0.0305403 
0.0277133 -0.011488 0.012768 0.0270287 -0.0130173 0.00844654 0.0285006 -0.00936554 0.00882786 
0.0120509 -0.0274732 0.000744735 0.00974098 -0.0283745 0.00390252 0.00736456 -0.029082 0.000744735 
-0.0229508 0.01932 0.0182183 -0.0254673 0.0158561 0.0157336 -0.0254724 0.0158479 0.0206846 
0.0295896 -0.00494546 0.00856872 0.029756 -0.00381809 0.00444402 0.03 -7.34788e-18 0.00574474 
-0.0288725 -0.00814748 0.00560481 -0.027387 -0.0122454 0.00409849 -0.0271708 -0.012718 0.00810134 
-0.0274685 0.0120615 0.0182281 -0.0274537 0.0120952 0.0133685 -0.0289058 0.00802844 0.0157141 
-0.0253407 0.0160578 0.0108315 -0.0273354 0.0123603 0.00906232 -0.0274537 0.0120952 0.0133685 
0.00247738 -0.0298975 0.000744735 1.0107e-16 -0.03 0.00406379 -0.00247738 -0.0298975 0.000744735 
-0.0124321 0.0273028 0.00930672 -0.00817694 0.0288641 0.00884097 -0.00974098 0.0283745 0.00503446 
-0.0203184 -0.0220717 0.000744735 -0.0220717 -0.0203184 0.00406944 -0.0236742 -0.0184264 0.000744735 
-0.0274685 0.0120615 0.0182281 -0.0289058 0.00802844 0.0157141 -0.0289098 0.00801405 0.0206714 
0.0289467 0.00787963 0.00539766 0.0274391 0.0121284 0.00413761 0.0272354 0.0125791 0.00826084 
-0.000422135 0.029997 0.0135002 -0.000625354 0.0299935 0.00913367 -0.00461575 0.0296428 0.0108044 
-0.0263842 -0.0142784 0.000744735 -0.027387 -0.0122454 0.00409849 -0.0283745 -0.00974098 0.000744735 
0.0297087 -0.00417057 0.0135352 0.0290063 -0.00765723 0.0118795 0.0295896 -0.00494546 0.00856872 
0.0203184 0.0220717 0.000744735 0.0220717 0.0203184 0.00413153 0.0236742 0.0184264 0.000744735 
-0.0254724 0.0158479 0.0206846 -0.0274685 0.0120615 0.0182281 -0.0274736 0.0120499 0.0231611 
0.0263842 0.0142784 0.000744735 0.0274391 0.0121284 0.00413761 0.0283745 0.00974098 0.000744735 
0.0254329 -0.0159112 0.0107376 0.0270287 -0.0130173 0.00844654 0.0277133 -0.011488 0.012768 
-0.03 -6.29394e-17 0.000744735 -0.0298975 0.00247738 0.0042211 -0.0295908 0.00493784 0.000744735 
0.0231666 -0.0190606 0.0130511 0.0230385 -0.0192153 0.00885066 0.0254329 -0.0159112 0.0107376 
-0.0283745 -0.00974098 0.000744735 -0.027387 -0.0122454 0.00409849 -0.0288725 -0.00814748 0.00560481 
-0.0229688 0.0192985 0.013322 -0.0228381 0.019453 0.00924096 -0.0253407 0.0160578 0.0108315 
-0.0289058 0.00802844 0.0157141 -0.0297559 0.00381921 0.0132502 -0.0297569 0.00381178 0.0181893 
-0.0222638 -0.0201078 0.0131512 -0.0249482 -0.016661 0.0104733 -0.0220848 -0.0203042 0.00809767 
-0.027085 -0.0128997 0.0181242 -0.0249489 -0.0166599 0.015608 -0.0249409 -0.0166719 0.020619 
-0.00461575 0.0296428 0.0108044 -0.00817694 0.0288641 0.00884097 -0.00853274 0.028761 0.0132394 
-0.0229688 0.0192985 0.013322 -0.0254673 0.0158561 0.0157336 -0.0229508 0.01932 0.0182183 
-0.0192177 -0.0230365 0.0106768 -0.0157145 -0.0255549 0.00906687 -0.0157306 -0.025545 0.0131488 
0.0131895 -0.0269451 0.010607 0.0165149 -0.0250451 0.00872062 0.0168138 -0.0248454 0.0130785 
0.0078534 0.0289538 0.0133149 0.00701649 0.0291679 0.00885938 0.00371136 0.0297695 0.0108782 
-0.0297559 0.00381921 0.0132502 -0.029998 -0.000345801 0.0112561 -0.029997 -0.000423074 0.0158056 
-0.0223018 -0.0200657 0.0280683 -0.019207 -0.0230454 0.0255813 -0.0192072 -0.0230453 0.0305403 
-0.00788936 -0.0289441 0.0132602 -0.00801402 -0.0289098 0.00904548 -0.00385588 -0.0297512 0.0106491 
0.0283745 0.00974098 0.000744735 0.0274391 0.0121284 0.00413761 0.0289467 0.00787963 0.00539766 
-0.0286483 -0.00890377 0.0206481 -0.0286771 -0.00881029 0.0156698 -0.027085 -0.0128997 0.0181242 
0.0274305 -0.0121477 0.0279663 0.0274246 -0.012161 0.0329117 0.0254958 -0.0158102 0.0304422 
-0.0270698 -0.0129316 0.0231191 -0.0286483 -0.00890377 0.0206481 -0.027085 -0.0128997 0.0181242 
0.0288533 -0.0082149 0.0256995 0.027449 -0.012106 0.0230012 0.0288726 -0.00814691 0.0207818 
-0.0297559 0.00381921 0.0132502 -0.0297561 0.00381799 0.00827593 -0.029998 -0.000345801 0.0112561 
0.0220698 -0.0203205 0.00503608 0.0230385 -0.0192153 0.00885066 0.0201617 -0.022215 0.00923585 
-0.00787846 -0.028947 0.0181179 -0.0119139 -0.0275329 0.0205813 -0.011914 -0.0275328 0.015564 
0.0184216 -0.023678 0.00502317 0.0165149 -0.0250451 0.00872062 0.0142784 -0.0263842 0.00503446 
0.0255119 -0.0157843 0.0254634 0.0274305 -0.0121477 0.0279663 0.0254958 -0.0158102 0.0304422 
-0.0296425 -0.00461751 0.013303 -0.0296896 -0.00430411 0.00876788 -0.0287453 -0.00858536 0.0106625 
0.027449 -0.012106 0.0230012 0.0274305 -0.0121477 0.0279663 0.0255119 -0.0157843 0.0254634 
-0.0250481 -0.0165103 0.00489695 -0.027387 -0.0122454 0.00409849 -0.0263842 -0.0142784 0.000744735 
0.0255524 -0.0157187 0.0204668 0.027449 -0.012106 0.0230012 0.0255119 -0.0157843 0.0254634 
-0.00493784 -0.0295908 0.00503446 -0.00801402 -0.0289098 0.00904548 -0.00974487 -0.0283732 0.00503521 
-0.0274685 0.0120615 0.0182281 -0.0289098 0.00801405 0.0206714 -0.0274736 0.0120499 0.0231611 
-0.0184264 0.0236742 0.00503446 -0.0164084 0.025115 0.00877793 -0.0142875 0.0263793 0.00502378 
0.0277133 -0.011488 0.012768 0.0289195 -0.007979 0.0159737 0.0275305 -0.0119195 0.0180277 
0.0192678 0.0229946 0.0107476 0.0157587 0.0255277 0.009198 0.015885 0.0254493 0.0133897 
0.0251416 -0.0163677 0.00512015 0.0230385 -0.0192153 0.00885066 0.0220698 -0.0203205 0.00503608 
-0.024938 -0.0166762 0.0255932 -0.0249357 -0.0166796 0.0305525 -0.0270639 -0.012944 0.0280807 
0.0274732 -0.0120509 0.00503446 0.0270287 -0.0130173 0.00844654 0.0251416 -0.0163677 0.00512015 
0.0142805 0.0263831 0.00503531 0.0157587 0.0255277 0.009198 0.0184264 0.0236742 0.00503446 
-0.0142657 -0.0263911 0.0050354 -0.0157145 -0.0255549 0.00906687 -0.0184264 -0.0236742 0.00503446 
-0.0289058 0.00802844 0.0157141 -0.0297569 0.00381178 0.0181893 -0.0289098 0.00801405 0.0206714 
0.0288525 -0.00821797 0.030677 0.0274246 -0.012161 0.0329117 0.0274305 -0.0121477 0.0279663 
-0.00853274 0.028761 0.0132394 -0.00817694 0.0288641 0.00884097 -0.0124321 0.0273028 0.00930672 
-0.00459593 0.0296459 0.0207364 -0.00456663 0.0296504 0.0157701 -0.00871042 0.0287076 0.0182212 
0.0288726 -0.00814691 0.0207818 0.027449 -0.012106 0.0230012 0.0275305 -0.0119195 0.0180277 
0.000508707 -0.0299957 0.0130509 0.00489992 -0.0295971 0.0103526 0.00490989 -0.0295955 0.0155204 
0.0120559 0.027471 0.0156548 0.0120283 0.0274831 0.0101161 0.0078534 0.0289538 0.0133149 
0.0250538 0.0165017 0.0048664 0.0274391 0.0121284 0.00413761 0.0263842 0.0142784 0.000744735 
0.0288533 -0.0082149 0.0256995 0.0274305 -0.0121477 0.0279663 0.027449 -0.012106 0.0230012 
-0.00037666 0.0299976 0.018292 -0.000422135 0.029997 0.0135002 -0.00456663 0.0296504 0.0157701 
0.029082 -0.00736456 0.00503446 0.0285006 -0.00936554 0.00882786 0.0274732 -0.0120509 0.00503446 
0.03 -7.34788e-18 0.000744735 0.029756 -0.00381809 0.00444402 0.0295908 -0.00493784 0.000744735 
0.03 -7.34788e-18 0.00574474 0.029756 -0.00381809 0.00444402 0.03 -7.34788e-18 0.000744735 
-0.0297559 0.00381921 0.0132502 -0.029997 -0.000423074 0.0158056 -0.0297569 0.00381178 0.0181893 
-0.0271708 -0.012718 0.00810134 -0.027387 -0.0122454 0.00409849 -0.0250481 -0.0165103 0.00489695 
-0.0199627 0.022394 0.0256498 -0.0229574 0.0193121 0.0281247 -0.0199674 0.0223898 0.0306104 
-0.0223018 -0.0200657 0.0280683 -0.0249357 -0.0166796 0.0305525 -0.024938 -0.0166762 0.0255932 
0.0288525 -0.00821797 0.030677 0.0274305 -0.0121477 0.0279663 0.0288533 -0.0082149 0.0256995 
0.0297176 -0.00410653 0.018362 0.0289195 -0.007979 0.0159737 0.0297087 -0.00417057 0.0135352 
0.0142784 -0.0263842 0.00503446 0.00974098 -0.0283745 0.00390252 0.0120509 -0.0274732 0.000744735 
-0.0199627 0.022394 0.0256498 -0.0199674 0.0223898 0.0306104 -0.0165617 0.0250142 0.0281363 
0.00736456 -0.029082 0.000744735 0.00974098 -0.0283745 0.00390252 0.00493784 -0.0295908 0.00503446 
0.0201617 -0.022215 0.00923585 0.0165149 -0.0250451 0.00872062 0.0184216 -0.023678 0.00502317 
0.0296875 0.00431884 0.00824474 0.0297216 0.00407725 0.00470627 0.0289467 0.00787963 0.00539766 
0.0295908 0.00493784 0.000744735 0.0297216 0.00407725 0.00470627 0.03 -7.34788e-18 0.000744735 
0.03 -7.34788e-18 0.000744735 0.0297216 0.00407725 0.00470627 0.03 -7.34788e-18 0.00574474 
0.0288533 -0.0082149 0.0256995 0.0288726 -0.00814691 0.0207818 0.0297135 -0.00413601 0.0232735 
-0.0254724 0.0158479 0.0206846 -0.0274736 0.0120499 0.0231611 -0.0254761 0.015842 0.025642 
0.00493784 -0.0295908 0.00503446 1.0107e-16 -0.03 0.00406379 0.00247738 -0.0298975 0.000744735 
-0.0274537 0.0120952 0.0133685 -0.0273354 0.0123603 0.00906232 -0.0289079 0.00802077 0.0107606 
0.00494465 0.0295897 0.00500584 0.00701649 0.0291679 0.00885938 0.00977164 0.028364 0.00502772 
-0.00247738 -0.0298975 0.000744735 1.0107e-16 -0.03 0.00406379 -0.00493784 -0.0295908 0.00503446 
-0.0236742 -0.0184264 0.000744735 -0.0220717 -0.0203184 0.00406944 -0.0250481 -0.0165103 0.00489695 
-0.0184264 -0.0236742 0.00503446 -0.0220717 -0.0203184 0.00406944 -0.0203184 -0.0220717 0.000744735 
-0.00974098 0.0283745 0.00503446 -0.00817694 0.0288641 0.00884097 -0.00490727 0.0295959 0.00516998 
0.0236742 0.0184264 0.000744735 0.0220717 0.0203184 0.00413153 0.0250538 0.0165017 0.0048664 
0.0184264 0.0236742 0.00503446 0.0220717 0.0203184 0.00413153 0.0203184 0.0220717 0.000744735 
0.00371136 0.0297695 0.0108782 -0.000625354 0.0299935 0.00913367 -0.000422135 0.029997 0.0135002 
-0.029998 -0.000345801 0.0112561 -0.0296896 -0.00430411 0.00876788 -0.0296425 -0.00461751 0.013303 
-0.0296896 -0.00430411 0.00876788 -0.0299998 0.000100872 0.00745822 -0.0299026 -0.00241541 0.00478185 
-0.0288894 0.00808717 0.00501136 -0.0298975 0.00247738 0.0042211 -0.0297561 0.00381799 0.00827593 
-0.0249409 -0.0166719 0.020619 -0.0222962 -0.0200718 0.0181286 -0.0222981 -0.0200697 0.0231057 
-0.0299026 -0.00241541 0.00478185 -0.0298975 0.00247738 0.0042211 -0.03 -6.29394e-17 0.000744735 
-0.0286384 -0.00893529 0.0256083 -0.029623 -0.00474124 0.0231425 -0.0286483 -0.00890377 0.0206481 
-0.0201231 0.02225 0.0098748 -0.0228381 0.019453 0.00924096 -0.0229688 0.0192985 0.013322 
-0.0165492 0.0250225 0.0132679 -0.0164084 0.025115 0.00877793 -0.0201231 0.02225 0.0098748 
0.00247738 0.0298975 0.000744735 -1.49662e-14 0.03 0.00503446 0.00494465 0.0295897 0.00500584 
-0.0157306 -0.025545 0.0131488 -0.0157145 -0.0255549 0.00906687 -0.0119911 -0.0274993 0.0100089 
-0.00736456 0.029082 0.000744735 -0.00974098 0.0283745 0.00503446 -0.00490727 0.0295959 0.00516998 
-0.0295908 0.00493784 0.000744735 -0.0298975 0.00247738 0.0042211 -0.0288894 0.00808717 0.00501136 
0.00493784 -0.0295908 0.00503446 0.00974098 -0.0283745 0.00390252 0.00963764 -0.0284098 0.0078631 
0.0120283 0.0274831 0.0101161 0.00701649 0.0291679 0.00885938 0.0078534 0.0289538 0.0133149 
-0.0119911 -0.0274993 0.0100089 -0.00801402 -0.0289098 0.00904548 -0.00788936 -0.0289441 0.0132602 
-0.0164084 0.025115 0.000744735 -0.0142875 0.0263793 0.00502378 -0.0120509 0.0274732 0.000744735 
-0.0164084 -0.025115 0.000744735 -0.0184264 -0.0236742 0.00503446 -0.0203184 -0.0220717 0.000744735 
-0.0263842 0.0142784 0.000744735 -0.025115 0.0164084 0.00503446 -0.0236742 0.0184264 0.000744735 
0.0297087 -0.00417057 0.0135352 0.0295896 -0.00494546 0.00856872 0.03 -7.34788e-18 0.0107447 
-0.0203184 0.0220717 0.000744735 -0.0184264 0.0236742 0.00503446 -0.0164084 0.025115 0.000744735 
-0.0236742 0.0184264 0.000744735 -0.025115 0.0164084 0.00503446 -0.022056 0.0203355 0.00504783 
-0.0164084 0.025115 0.000744735 -0.0184264 0.0236742 0.00503446 -0.0142875 0.0263793 0.00502378 
-0.022056 0.0203355 0.00504783 -0.0184264 0.0236742 0.00503446 -0.0203184 0.0220717 0.000744735 
-0.0273757 0.0122708 0.00490711 -0.025115 0.0164084 0.00503446 -0.0263842 0.0142784 0.000744735 
0.015885 0.0254493 0.0133897 0.0157587 0.0255277 0.009198 0.0120283 0.0274831 0.0101161 
0.00247738 0.0298975 0.000744735 0.00494465 0.0295897 0.00500584 0.00736456 0.029082 0.000744735 
-0.0236742 0.0184264 0.000744735 -0.022056 0.0203355 0.00504783 -0.0203184 0.0220717 0.000744735 
-0.0283745 0.00974098 0.000744735 -0.0273757 0.0122708 0.00490711 -0.0263842 0.0142784 0.000744735 
-0.00736456 0.029082 0.000744735 -0.00490727 0.0295959 0.00516998 -0.00247738 0.0298975 0.000744735 
-0.00247738 -0.0298975 0.000744735 -0.00493784 -0.0295908 0.00503446 -0.00736456 -0.029082 0.000744735 
0.0275305 -0.0119195 0.0180277 0.027449 -0.012106 0.0230012 0.0255524 -0.0157187 0.0204668 
-0.025115 0.0164084 0.00503446 -0.0228381 0.019453 0.00924096 -0.022056 0.0203355 0.00504783 
-0.0142875 0.0263793 0.00502378 -0.0164084 0.025115 0.00877793 -0.0124321 0.0273028 0.00930672 
-0.0236742 -0.0184264 0.000744735 -0.0250481 -0.0165103 0.00489695 -0.0263842 -0.0142784 0.000744735 
-0.0295908 -0.00493784 0.000744735 -0.0299026 -0.00241541 0.00478185 -0.03 -6.29394e-17 0.000744735 
-0.0287453 -0.00858536 0.0106625 -0.0296896 -0.00430411 0.00876788 -0.0288725 -0.00814748 0.00560481 
-0.029998 -0.000345801 0.0112561 -0.0299998 0.000100872 0.00745822 -0.0296896 -0.00430411 0.00876788 
0.00701649 0.0291679 0.00885938 0.00247738 0.0298975 0.00757917 0.00371136 0.0297695 0.0108782 
0.0297135 -0.00413601 0.0232735 0.0288726 -0.00814691 0.0207818 0.0297176 -0.00410653 0.018362 
0.03 -7.34788e-18 0.0107447 0.0295896 -0.00494546 0.00856872 0.03 -7.34788e-18 0.00574474 
-0.0120509 0.0274732 0.000744735 -0.00974098 0.0283745 0.00503446 -0.00736456 0.029082 0.000744735 
0.0272251 0.0126013 0.033131 0.0287571 0.00854569 0.0306572 0.0272358 0.0125782 0.0281866 
-0.00247738 0.0298975 0.000744735 -1.49662e-14 0.03 0.00503446 0.00247738 0.0298975 0.000744735 
0.00494465 0.0295897 0.00500584 0.00247738 0.0298975 0.00757917 0.00701649 0.0291679 0.00885938 
-0.0142875 0.0263793 0.00502378 -0.00974098 0.0283745 0.00503446 -0.0120509 0.0274732 0.000744735 
0.0272358 0.0125782 0.0281866 0.0287571 0.00854569 0.0306572 0.0287571 0.00854579 0.0257125 
-0.00490727 0.0295959 0.00516998 -1.49662e-14 0.03 0.00503446 -0.00247738 0.0298975 0.000744735 
0.0250538 0.0165017 0.0048664 0.0220717 0.0203184 0.00413153 0.0222062 0.0201714 0.00814856 
0.000157307 -0.0299996 0.0080593 1.0107e-16 -0.03 0.00406379 0.00493784 -0.0295908 0.00503446 
0.0272354 0.0125791 0.00826084 0.0274391 0.0121284 0.00413761 0.0250538 0.0165017 0.0048664 
-0.0270698 -0.0129316 0.0231191 -0.0286384 -0.00893529 0.0256083 -0.0286483 -0.00890377 0.0206481 
0.0251434 0.0163649 0.0306614 0.0272251 0.0126013 0.033131 0.0272358 0.0125782 0.0281866 
-0.0286384 -0.00893529 0.0256083 -0.0286333 -0.00895171 0.0305655 -0.029619 -0.00476614 0.0280953 
-0.0289098 0.00801405 0.0206714 -0.0289126 0.00800396 0.0256294 -0.0274736 0.0120499 0.0231611 
-0.0254724 0.0158479 0.0206846 -0.0254761 0.015842 0.025642 -0.0229534 0.0193168 0.0231686 
-0.0283745 0.00974098 0.000744735 -0.0288894 0.00808717 0.00501136 -0.0273757 0.0122708 0.00490711 
0.0201617 -0.022215 0.00923585 0.0230385 -0.0192153 0.00885066 0.0231666 -0.0190606 0.0130511 
0.023091 -0.0191522 0.0229884 0.0230734 -0.0191733 0.0279595 0.0201675 -0.0222097 0.0254813 
0.016826 -0.0248372 0.0279774 0.0201661 -0.022211 0.0304416 0.0168089 -0.0248488 0.0329371 
0.0201675 -0.0222097 0.0254813 0.0201661 -0.022211 0.0304416 0.016826 -0.0248372 0.0279774 
0.0201675 -0.0222097 0.0254813 0.0230734 -0.0191733 0.0279595 0.0201661 -0.022211 0.0304416 
0.0120559 0.027471 0.0156548 0.0158958 0.0254425 0.0182522 0.015885 0.0254493 0.0133897 
-0.0295908 0.00493784 0.000744735 -0.0288894 0.00808717 0.00501136 -0.0283745 0.00974098 0.000744735 
0.0287571 0.00854569 0.0306572 0.0296729 0.00441821 0.0331611 0.0296875 0.00431884 0.0282447 
-0.0165507 0.0250215 0.0231644 -0.0165482 0.0250231 0.0181913 -0.0199638 0.022393 0.0206893 
0.0230734 -0.0191733 0.0279595 0.0254958 -0.0158102 0.0304422 0.0230725 -0.0191745 0.0329251 
-0.0199921 0.0223677 0.015679 -0.0165492 0.0250225 0.0132679 -0.0201231 0.02225 0.0098748 
0.00814182 0.028874 0.0281715 0.0121525 0.0274284 0.0256894 0.008107 0.0288838 0.0232154 
-0.0274537 0.0120952 0.0133685 -0.0289079 0.00802077 0.0107606 -0.0289058 0.00802844 0.0157141 
0.0255119 -0.0157843 0.0254634 0.0230734 -0.0191733 0.0279595 0.023091 -0.0191522 0.0229884 
0.008107 0.0288838 0.0232154 0.0121525 0.0274284 0.0256894 0.0121103 0.027447 0.0207066 
-0.00876977 0.0286896 0.0231883 -0.00871042 0.0287076 0.0182212 -0.0127745 0.0271443 0.0206634 
0.016826 -0.0248372 0.0279774 0.0168089 -0.0248488 0.0329371 0.0131146 -0.0269816 0.0304696 
0.0121103 0.027447 0.0207066 0.0158958 0.0254425 0.0182522 0.0120559 0.027471 0.0156548 
-0.0286384 -0.00893529 0.0256083 -0.029619 -0.00476614 0.0280953 -0.029623 -0.00474124 0.0231425 
0.0287571 0.00854579 0.0257125 0.0287571 0.00854569 0.0306572 0.0296875 0.00431884 0.0282447 
-0.029997 -0.000423074 0.0158056 -0.0299964 -0.000462494 0.020681 -0.0297569 0.00381178 0.0181893 
0.0121858 0.0274136 0.0306517 0.0121525 0.0274284 0.0256894 0.00814182 0.028874 0.0281715 
0.0159468 0.0254106 0.023202 0.0158958 0.0254425 0.0182522 0.0121103 0.027447 0.0207066 
-0.029619 -0.00476614 0.0280953 -0.0299961 -0.000481185 0.0256226 -0.029623 -0.00474124 0.0231425 
0.0296875 0.00431884 0.0282447 0.0296729 0.00441821 0.0331611 0.03 -7.34788e-18 0.0307447 
-0.0249489 -0.0166599 0.015608 -0.0222962 -0.0200718 0.0181286 -0.0249409 -0.0166719 0.020619 
0.00813823 0.0288751 0.0331289 0.00814182 0.028874 0.0281715 0.00392991 0.0297415 0.0306454 
0.029082 -0.00736456 0.00503446 0.0274732 -0.0120509 0.00503446 0.0283745 -0.00974098 0.000744735 
-0.000355799 0.0299979 0.0232163 0.00392281 0.0297424 0.0256932 0.00388603 0.0297472 0.0207467 
-0.000349677 0.029998 0.0281639 0.00392281 0.0297424 0.0256932 -0.000355799 0.0299979 0.0232163 
0.0255119 -0.0157843 0.0254634 0.0254958 -0.0158102 0.0304422 0.0230734 -0.0191733 0.0279595 
-0.029997 -0.000423074 0.0158056 -0.0296425 -0.00461751 0.013303 -0.029632 -0.0046846 0.018203 
0.0263842 -0.0142784 0.000744735 0.0274732 -0.0120509 0.00503446 0.0251416 -0.0163677 0.00512015 
-0.029632 -0.0046846 0.018203 -0.0296425 -0.00461751 0.013303 -0.0286771 -0.00881029 0.0156698 
0.0220698 -0.0203205 0.00503608 0.0201617 -0.022215 0.00923585 0.0184216 -0.023678 0.00502317 
-0.0120509 -0.0274732 0.000744735 -0.0142657 -0.0263911 0.0050354 -0.0164084 -0.025115 0.000744735 
-0.0164084 -0.025115 0.000744735 -0.0142657 -0.0263911 0.0050354 -0.0184264 -0.0236742 0.00503446 
-0.0297578 0.00380405 0.0231468 -0.0297591 0.00379443 0.0281028 -0.0289126 0.00800396 0.0256294 
0.0168154 -0.0248444 0.0230081 0.016826 -0.0248372 0.0279774 0.0131129 -0.0269825 0.0255044 
-0.00461328 0.0296432 0.0256854 -0.000349677 0.029998 0.0281639 -0.000355799 0.0299979 0.0232163 
0.0201675 -0.0222097 0.0254813 0.016826 -0.0248372 0.0279774 0.0168154 -0.0248444 0.0230081 
-0.00462888 0.0296407 0.0306373 -0.000349677 0.029998 0.0281639 -0.00461328 0.0296432 0.0256854 
0.0131129 -0.0269825 0.0255044 0.016826 -0.0248372 0.0279774 0.0131146 -0.0269816 0.0304696 
0.00388603 0.0297472 0.0207467 0.00392281 0.0297424 0.0256932 0.008107 0.0288838 0.0232154 
-0.029619 -0.00476614 0.0280953 -0.0299958 -0.000498983 0.0305779 -0.0299961 -0.000481185 0.0256226 
-0.0270639 -0.012944 0.0280807 -0.0249357 -0.0166796 0.0305525 -0.0270589 -0.0129544 0.0330388 
-0.0297559 0.00381921 0.0132502 -0.0289079 0.00802077 0.0107606 -0.0297561 0.00381799 0.00827593 
0.00489992 -0.0295971 0.0103526 0.00919592 -0.0285558 0.01298 0.00490989 -0.0295955 0.0155204 
0.0201661 -0.022211 0.0304416 0.0230734 -0.0191733 0.0279595 0.0230725 -0.0191745 0.0329251 
0.0203184 -0.0220717 0.000744735 0.0220698 -0.0203205 0.00503608 0.0184216 -0.023678 0.00502317 
0.0295908 -0.00493784 0.000744735 0.029082 -0.00736456 0.00503446 0.0283745 -0.00974098 0.000744735 
0.00490989 -0.0295955 0.0155204 0.00919592 -0.0285558 0.01298 0.00913157 -0.0285765 0.0180372 
0.0121858 0.0274136 0.0306517 0.00814182 0.028874 0.0281715 0.00813823 0.0288751 0.0331289 
0.00493704 -0.029591 0.0255179 0.00911884 -0.0285805 0.0230236 0.00912065 -0.02858 0.0279947 
-0.0229534 0.0193168 0.0231686 -0.0229574 0.0193121 0.0281247 -0.0199627 0.022394 0.0256498 
-0.0199638 0.022393 0.0206893 -0.0165482 0.0250231 0.0181913 -0.0199921 0.0223677 0.015679 
-0.00880102 0.02868 0.0281497 -0.00462888 0.0296407 0.0306373 -0.00461328 0.0296432 0.0256854 
0.00392991 0.0297415 0.0306454 0.00814182 0.028874 0.0281715 0.00392281 0.0297424 0.0256932 
0.0256076 -0.0156285 0.0155153 0.0277133 -0.011488 0.012768 0.0275305 -0.0119195 0.0180277 
0.0283745 -0.00974098 0.000744735 0.0274732 -0.0120509 0.00503446 0.0263842 -0.0142784 0.000744735 
-0.00736456 -0.029082 0.000744735 -0.00974487 -0.0283732 0.00503521 -0.0120509 -0.0274732 0.000744735 
-0.00493784 -0.0295908 0.00503446 -0.00974487 -0.0283732 0.00503521 -0.00736456 -0.029082 0.000744735 
0.0164084 0.025115 0.000744735 0.0142805 0.0263831 0.00503531 0.0184264 0.0236742 0.00503446 
-0.0199921 0.0223677 0.015679 -0.0165482 0.0250231 0.0181913 -0.0165492 0.0250225 0.0132679 
-0.0254761 0.015842 0.025642 -0.0229574 0.0193121 0.0281247 -0.0229534 0.0193168 0.0231686 
0.00800073 0.0289135 0.0182576 0.0078534 0.0289538 0.0133149 0.0037865 0.0297601 0.0158382 
0.0131146 -0.0269816 0.0304696 0.00912428 -0.0285788 0.0329606 0.00912065 -0.02858 0.0279947 
0.00392991 0.0297415 0.0306454 0.00392281 0.0297424 0.0256932 -0.000349677 0.029998 0.0281639 
-0.0157184 -0.0255526 0.0280505 -0.0119063 -0.0275362 0.0305209 -0.0157166 -0.0255536 0.0330104 
-0.00974487 -0.0283732 0.00503521 -0.0142657 -0.0263911 0.0050354 -0.0120509 -0.0274732 0.000744735 
0.0164084 -0.025115 0.000744735 0.0184216 -0.023678 0.00502317 0.0142784 -0.0263842 0.00503446 
0.0236742 0.0184264 0.000744735 0.0250538 0.0165017 0.0048664 0.0263842 0.0142784 0.000744735 
-0.0286483 -0.00890377 0.0206481 -0.029632 -0.0046846 0.018203 -0.0286771 -0.00881029 0.0156698 
0.00800073 0.0289135 0.0182576 0.0121103 0.027447 0.0207066 0.0120559 0.027471 0.0156548 
-0.029619 -0.00476614 0.0280953 -0.029617 -0.00477853 0.0330504 -0.0299958 -0.000498983 0.0305779 
0.0201962 -0.0221837 0.0205168 0.023091 -0.0191522 0.0229884 0.0201675 -0.0222097 0.0254813 
0.0251434 0.0163649 0.0306614 0.0272358 0.0125782 0.0281866 0.025144 0.0163639 0.0256967 
0.008107 0.0288838 0.0232154 0.0121103 0.027447 0.0207066 0.00800073 0.0289135 0.0182576 
0.0201962 -0.0221837 0.0205168 0.0231358 -0.0190981 0.0179868 0.023091 -0.0191522 0.0229884 
0.00493704 -0.029591 0.0255179 0.00492562 -0.0295929 0.0205444 0.00911884 -0.0285805 0.0230236 
-0.0192045 -0.0230475 0.0206191 -0.0157219 -0.0255504 0.0230864 -0.019207 -0.0230454 0.0255813 
-0.0142875 0.0263793 0.00502378 -0.0124321 0.0273028 0.00930672 -0.00974098 0.0283745 0.00503446 
0.0255524 -0.0157187 0.0204668 0.0255119 -0.0157843 0.0254634 0.023091 -0.0191522 0.0229884 
0.0256076 -0.0156285 0.0155153 0.0275305 -0.0119195 0.0180277 0.0255524 -0.0157187 0.0204668 
-0.0289098 0.00801405 0.0206714 -0.0297578 0.00380405 0.0231468 -0.0289126 0.00800396 0.0256294 
0.0251416 -0.0163677 0.00512015 0.0220698 -0.0203205 0.00503608 0.0236742 -0.0184264 0.000744735 
-0.0128028 0.027131 0.0256547 -0.00876977 0.0286896 0.0231883 -0.0127745 0.0271443 0.0206634 
-0.0286333 -0.00895171 0.0305655 -0.029617 -0.00477853 0.0330504 -0.029619 -0.00476614 0.0280953 
-0.0299964 -0.000462494 0.020681 -0.0297578 0.00380405 0.0231468 -0.0297569 0.00381178 0.0181893 
0.0263842 -0.0142784 0.000744735 0.0251416 -0.0163677 0.00512015 0.0236742 -0.0184264 0.000744735 
0.0201962 -0.0221837 0.0205168 0.0201675 -0.0222097 0.0254813 0.0168154 -0.0248444 0.0230081 
-0.00882299 0.0286732 0.0331082 -0.00462888 0.0296407 0.0306373 -0.00880102 0.02868 0.0281497 
0.00912065 -0.02858 0.0279947 0.00912428 -0.0285788 0.0329606 0.00494349 -0.0295899 0.030485 
-0.0157184 -0.0255526 0.0280505 -0.0119095 -0.0275348 0.0255586 -0.0119063 -0.0275362 0.0305209 
0.025144 0.0163639 0.0256967 0.0272358 0.0125782 0.0281866 0.0272336 0.0125829 0.0232141 
0.0168149 -0.0248447 0.0180375 0.0201962 -0.0221837 0.0205168 0.0168154 -0.0248444 0.0230081 
-0.0128226 0.0271216 0.0306219 -0.00880102 0.02868 0.0281497 -0.0128028 0.027131 0.0256547 
-0.00882299 0.0286732 0.0331082 -0.00880102 0.02868 0.0281497 -0.0128226 0.0271216 0.0306219 
0.0164084 0.025115 0.000744735 0.0184264 0.0236742 0.00503446 0.0203184 0.0220717 0.000744735 
0.0131129 -0.0269825 0.0255044 0.0131146 -0.0269816 0.0304696 0.00912065 -0.02858 0.0279947 
-0.00876977 0.0286896 0.0231883 -0.00459593 0.0296459 0.0207364 -0.00871042 0.0287076 0.0182212 
-0.0289058 0.00802844 0.0157141 -0.0289079 0.00802077 0.0107606 -0.0297559 0.00381921 0.0132502 
-0.00037666 0.0299976 0.018292 -0.000355799 0.0299979 0.0232163 0.00388603 0.0297472 0.0207467 
0.0131134 -0.0269822 0.0205402 0.0168154 -0.0248444 0.0230081 0.0131129 -0.0269825 0.0255044 
0.0168149 -0.0248447 0.0180375 0.0201941 -0.0221856 0.0153815 0.0201962 -0.0221837 0.0205168 
0.00911884 -0.0285805 0.0230236 0.0131134 -0.0269822 0.0205402 0.0131129 -0.0269825 0.0255044 
0.000508707 -0.0299957 0.0130509 0.00490989 -0.0295955 0.0155204 0.000599139 -0.029994 0.0180659 
-0.019207 -0.0230454 0.0255813 -0.0157184 -0.0255526 0.0280505 -0.0192072 -0.0230453 0.0305403 
0.00977164 0.028364 0.00502772 0.0142805 0.0263831 0.00503531 0.0120509 0.0274732 0.000744735 
-0.000357296 0.0299979 0.0331183 -0.000349677 0.029998 0.0281639 -0.00462888 0.0296407 0.0306373 
-0.00459593 0.0296459 0.0207364 -0.000355799 0.0299979 0.0232163 -0.00037666 0.0299976 0.018292 
0.0231358 -0.0190981 0.0179868 0.0255524 -0.0157187 0.0204668 0.023091 -0.0191522 0.0229884 
-0.00461328 0.0296432 0.0256854 -0.000355799 0.0299979 0.0232163 -0.00459593 0.0296459 0.0207364 
0.0164084 -0.025115 0.000744735 0.0142784 -0.0263842 0.00503446 0.0120509 -0.0274732 0.000744735 
-0.0274811 0.0120328 0.0330741 -0.0274774 0.0120413 0.0281174 -0.0289154 0.00799358 0.030589 
0.0194616 0.0228308 0.0306565 0.0225299 0.0198092 0.0331391 0.0225381 0.0197998 0.0281777 
-0.0157184 -0.0255526 0.0280505 -0.0157166 -0.0255536 0.0330104 -0.0192072 -0.0230453 0.0305403 
0.00388603 0.0297472 0.0207467 0.008107 0.0288838 0.0232154 0.00800073 0.0289135 0.0182576 
-0.0222976 -0.0200703 0.0330255 -0.0249357 -0.0166796 0.0305525 -0.0223018 -0.0200657 0.0280683 
0.0225381 0.0197998 0.0281777 0.0225299 0.0198092 0.0331391 0.0251434 0.0163649 0.0306614 
0.0225381 0.0197998 0.0281777 0.0251434 0.0163649 0.0306614 0.025144 0.0163639 0.0256967 
-0.0297569 0.00381178 0.0181893 -0.0297578 0.00380405 0.0231468 -0.0289098 0.00801405 0.0206714 
0.00911884 -0.0285805 0.0230236 0.0131129 -0.0269825 0.0255044 0.00912065 -0.02858 0.0279947 
0.0131134 -0.0269822 0.0205402 0.0168149 -0.0248447 0.0180375 0.0168154 -0.0248444 0.0230081 
0.0203184 -0.0220717 0.000744735 0.0184216 -0.023678 0.00502317 0.0164084 -0.025115 0.000744735 
0.00736456 0.029082 0.000744735 0.00977164 0.028364 0.00502772 0.0120509 0.0274732 0.000744735 
0.00494465 0.0295897 0.00500584 0.00977164 0.028364 0.00502772 0.00736456 0.029082 0.000744735 
-0.00037666 0.0299976 0.018292 0.0037865 0.0297601 0.0158382 -0.000422135 0.029997 0.0135002 
-0.029623 -0.00474124 0.0231425 -0.029632 -0.0046846 0.018203 -0.0286483 -0.00890377 0.0206481 
-0.00876977 0.0286896 0.0231883 -0.00880102 0.02868 0.0281497 -0.00461328 0.0296432 0.0256854 
-0.0128028 0.027131 0.0256547 -0.00880102 0.02868 0.0281497 -0.00876977 0.0286896 0.0231883 
0.0120509 0.0274732 0.000744735 0.0142805 0.0263831 0.00503531 0.0164084 0.025115 0.000744735 
0.00388603 0.0297472 0.0207467 0.00800073 0.0289135 0.0182576 0.0037865 0.0297601 0.0158382 
0.0120559 0.027471 0.0156548 0.015885 0.0254493 0.0133897 0.0120283 0.0274831 0.0101161 
-0.0157219 -0.0255504 0.0230864 -0.0119095 -0.0275348 0.0255586 -0.0157184 -0.0255526 0.0280505 
-0.00037666 0.0299976 0.018292 0.00388603 0.0297472 0.0207467 0.0037865 0.0297601 0.0158382 
0.0168138 -0.0248454 0.0130785 0.0201941 -0.0221856 0.0153815 0.0168149 -0.0248447 0.0180375 
0.00392281 0.0297424 0.0256932 0.00814182 0.028874 0.0281715 0.008107 0.0288838 0.0232154 
0.00800073 0.0289135 0.0182576 0.0120559 0.027471 0.0156548 0.0078534 0.0289538 0.0133149 
-0.00366495 -0.0297753 0.0205756 -0.00786309 -0.0289512 0.0230669 -0.00787846 -0.028947 0.0181179 
0.0297128 -0.00414138 0.0282399 0.0297233 -0.00406542 0.0332065 0.0288525 -0.00821797 0.030677 
-0.00459593 0.0296459 0.0207364 -0.00037666 0.0299976 0.018292 -0.00456663 0.0296504 0.0157701 
0.0236742 -0.0184264 0.000744735 0.0220698 -0.0203205 0.00503608 0.0203184 -0.0220717 0.000744735 
-0.029998 -0.000345801 0.0112561 -0.0296425 -0.00461751 0.013303 -0.029997 -0.000423074 0.0158056 
-0.00876977 0.0286896 0.0231883 -0.00461328 0.0296432 0.0256854 -0.00459593 0.0296459 0.0207364 
0.000648215 -0.029993 0.0230435 0.00492562 -0.0295929 0.0205444 0.00493704 -0.029591 0.0255179 
-0.019207 -0.0230454 0.0255813 -0.0157219 -0.0255504 0.0230864 -0.0157184 -0.0255526 0.0280505 
0.00736456 -0.029082 0.000744735 0.00493784 -0.0295908 0.00503446 0.00247738 -0.0298975 0.000744735 
0.00493704 -0.029591 0.0255179 0.00912065 -0.02858 0.0279947 0.00494349 -0.0295899 0.030485 
-0.00787846 -0.028947 0.0181179 -0.00786309 -0.0289512 0.0230669 -0.0119139 -0.0275329 0.0205813 
0.0287579 0.00854315 0.0207306 0.029686 0.0043293 0.0232362 0.0296875 0.00431884 0.0182447 
-0.00809412 -0.0211818 0.0807447 -0.0123473 -0.0194528 0.0807447 -0.0122417 -0.0232057 0.0807447 
0.0289012 0.00804489 0.0764914 0.0288042 0.00838565 0.0705774 0.0272641 0.0125168 0.072984 
0.00844368 0.024816 0.0807447 0.00935195 0.0210524 0.0807447 0.0122843 0.0228125 0.0807447 
0.0255067 -0.0157926 0.0703743 0.0274476 -0.012109 0.073016 0.025115 -0.0164084 0.076455 
-0.0122417 -0.0232057 0.0807447 -0.0123473 -0.0194528 0.0807447 -0.0159919 -0.0205249 0.0807447 
0.0184264 0.0236742 0.076455 0.0220706 0.0203197 0.0734143 0.0190501 0.0231753 0.0705263 
0.00475217 0.0262618 0.0807447 0.0049706 0.0224562 0.0807447 0.00844368 0.024816 0.0807447 
-0.00736456 0.029082 0.0807447 -0.00875739 0.0254178 0.0807447 -0.00480389 0.0254027 0.0807447 
0.00756968 -0.0163985 0.0807447 0.00891473 -0.0202971 0.0807447 0.0120396 -0.017547 0.0807447 
-9.41575e-05 -0.0230183 0.0807447 -0.000122576 -0.0268323 0.0807447 0.00371169 -0.0256228 0.0807447 
0.0274476 -0.012109 0.073016 0.0289065 -0.00802601 0.0706125 0.0289189 -0.00798104 0.0767628 
0.00371169 -0.0256228 0.0807447 -0.000122576 -0.0268323 0.0807447 0.00247738 -0.0298975 0.0807447 
-0.0122417 -0.0232057 0.0807447 -0.00884013 -0.0252871 0.0807447 -0.00809412 -0.0211818 0.0807447 
0.0272641 0.0125168 0.072984 0.0274732 0.0120509 0.0771825 0.0289012 0.00804489 0.0764914 
-0.0120509 -0.0274732 0.0807447 -0.00884013 -0.0252871 0.0807447 -0.0122417 -0.0232057 0.0807447 
-0.0249343 -0.0166817 0.0702237 -0.0223143 -0.0200517 0.0721179 -0.0249996 -0.0165837 0.0762763 
0.00474583 -0.0296222 0.0764677 0.00493967 -0.0295905 0.0703915 0.00909105 -0.0285894 0.0726233 
-0.00480389 0.0254027 0.0807447 -0.00875739 0.0254178 0.0807447 -0.0076627 0.0219387 0.0807447 
-0.0263842 0.0142784 0.0807447 -0.024489 0.0105266 0.0807447 -0.0220227 0.0136092 0.0807447 
0.00474583 -0.0296222 0.0764677 0.000490621 -0.029996 0.0726411 0.00493967 -0.0295905 0.0703915 
0.0123194 -0.0226331 0.0807447 0.00891473 -0.0202971 0.0807447 0.00814478 -0.0242894 0.0807447 
0.0274476 -0.012109 0.073016 0.0274732 -0.0120509 0.0771136 0.025115 -0.0164084 0.076455 
0.0289189 -0.00798104 0.0767628 0.0289065 -0.00802601 0.0706125 0.029745 -0.00390313 0.0731016 
0.0113385 0.0181284 0.0807447 0.00935195 0.0210524 0.0807447 0.00649523 0.0189422 0.0807447 
0.0190501 0.0231753 0.0705263 0.0154644 0.025707 0.0725605 0.0184264 0.0236742 0.076455 
0.0283745 0.00974098 0.0807447 0.0262923 0.00664646 0.0807447 0.0295908 0.00493784 0.0807447 
-0.00492678 0.0295927 0.076362 -0.000571711 0.0299946 0.0721766 -0.00494722 0.0295893 0.0702772 
-0.0120509 0.0274732 0.0807447 -0.00875739 0.0254178 0.0807447 -0.00736456 0.029082 0.0807447 
0.00247738 -0.0298975 0.0807447 -0.000122576 -0.0268323 0.0807447 -0.00247738 -0.0298975 0.0807447 
-0.00987953 -0.0164218 0.0807447 -0.0123473 -0.0194528 0.0807447 -0.00809412 -0.0211818 0.0807447 
0.00649523 0.0189422 0.0807447 0.00935195 0.0210524 0.0807447 0.0049706 0.0224562 0.0807447 
-0.0297941 0.00350863 0.0726915 -0.0289239 0.00796289 0.0764459 -0.0290536 0.00747574 0.0702698 
-0.0249996 -0.0165837 0.0762763 -0.0270769 -0.0129166 0.0722029 -0.0249343 -0.0166817 0.0702237 
0.025115 0.0164084 0.076455 0.0272641 0.0125168 0.072984 0.0250269 0.0165425 0.0706045 
0.0250269 0.0165425 0.0706045 0.0220706 0.0203197 0.0734143 0.025115 0.0164084 0.076455 
0.00649523 0.0189422 0.0807447 0.0049706 0.0224562 0.0807447 0.00170261 0.0199253 0.0807447 
-0.0209022 0.00905108 0.0807447 -0.024489 0.0105266 0.0807447 -0.0247613 0.00595337 0.0807447 
0.0228419 0.00568166 0.0807447 0.0262923 0.00664646 0.0807447 0.0233864 0.0102056 0.0807447 
0.025115 -0.0164084 0.076455 0.0229611 -0.0193077 0.07235 0.0255067 -0.0157926 0.0703743 
0.0289012 0.00804489 0.0764914 0.0297081 0.00417465 0.0729931 0.0288042 0.00838565 0.0705774 
0.0184264 0.0236742 0.076455 0.0220717 0.0203184 0.0775085 0.0220706 0.0203197 0.0734143 
0.0254585 0.00211549 0.0807447 0.0262923 0.00664646 0.0807447 0.0228419 0.00568166 0.0807447 
-0.03 -6.29394e-17 0.0807447 -0.0269306 0.00213112 0.0807447 -0.0295908 0.00493784 0.0807447 
0.0049706 0.0224562 0.0807447 0.00935195 0.0210524 0.0807447 0.00844368 0.024816 0.0807447 
0.0157653 0.0203057 0.0807447 0.0151607 0.0162574 0.0807447 0.0190979 0.0173202 0.0807447 
0.0164084 0.025115 0.0807447 0.0122843 0.0228125 0.0807447 0.0157653 0.0203057 0.0807447 
-0.0289239 0.00796289 0.0764459 -0.0278518 0.0111479 0.0726891 -0.0290536 0.00747574 0.0702698 
-0.0230511 0.00103609 0.0807447 -0.0269306 0.00213112 0.0807447 -0.026125 -0.00201284 0.0807447 
-0.0076627 0.0219387 0.0807447 -0.00875739 0.0254178 0.0807447 -0.0119049 0.0231923 0.0807447 
0.0129972 -0.0046275 0.0807447 0.0170352 -0.00513945 0.0807447 0.0164569 -0.00110475 0.0807447 
-0.0263842 -0.0142784 0.0807447 -0.0244738 -0.0106783 0.0807447 -0.0283745 -0.00974098 0.0807447 
-0.0249996 -0.0165837 0.0762763 -0.0223143 -0.0200517 0.0721179 -0.0219258 -0.0204758 0.0764472 
-0.00494722 0.0295893 0.0702772 -0.00878928 0.0286836 0.0725544 -0.00492678 0.0295927 0.076362 
-0.00983278 0.0143111 0.0807447 -0.0110301 0.0188699 0.0807447 -0.0143728 0.0156392 0.0807447 
-0.0252385 -0.00663486 0.0807447 -0.026125 -0.00201284 0.0807447 -0.0295908 -0.00493784 0.0807447 
-0.0283745 0.00974098 0.0807447 -0.024489 0.0105266 0.0807447 -0.0263842 0.0142784 0.0807447 
-0.00528641 -0.0174878 0.0807447 -0.0036895 -0.0211171 0.0807447 -0.000595274 -0.0186108 0.0807447 
0.0124538 0.0129968 0.0807447 0.0151607 0.0162574 0.0807447 0.0113385 0.0181284 0.0807447 
0.0190501 0.0231753 0.0705263 0.0220706 0.0203197 0.0734143 0.0222925 0.0200759 0.0680653 
-0.0186531 -0.000485601 0.0807447 -0.0219391 -0.00367156 0.0807447 -0.0175293 -0.00534917 0.0807447 
0.0289189 -0.00798104 0.0767628 0.0274732 -0.0120509 0.0771136 0.0274476 -0.012109 0.073016 
-0.00736456 -0.029082 0.0807447 -0.00884013 -0.0252871 0.0807447 -0.0120509 -0.0274732 0.0807447 
-0.0252385 -0.00663486 0.0807447 -0.0244738 -0.0106783 0.0807447 -0.0210329 -0.00857697 0.0807447 
0.0222925 0.0200759 0.0680653 0.0220706 0.0203197 0.0734143 0.0250269 0.0165425 0.0706045 
4.08595e-05 0.03 0.0764834 -0.000571711 0.0299946 0.0721766 -0.00492678 0.0295927 0.076362 
-0.0224533 0.019896 0.0680534 -0.0236742 0.0184264 0.0724112 -0.0203773 0.0220174 0.0724501 
0.029721 -0.00408211 0.0482208 0.0297246 -0.00405578 0.0429538 0.03 -7.34788e-18 0.0457447 
-0.0210329 -0.00857697 0.0807447 -0.0244738 -0.0106783 0.0807447 -0.0210811 -0.013826 0.0807447 
-0.026125 -0.00201284 0.0807447 -0.0269306 0.00213112 0.0807447 -0.03 -6.29394e-17 0.0807447 
0.0159555 -0.0144888 0.0807447 0.0184672 -0.0112631 0.0807447 0.015062 -0.00917333 0.0807447 
-0.0120509 -0.0274732 0.0807447 -0.0122417 -0.0232057 0.0807447 -0.0164084 -0.025115 0.0807447 
0.00474583 -0.0296222 0.0764677 -0.000261222 -0.0299989 0.0769404 0.000490621 -0.029996 0.0726411 
-0.0119049 0.0231923 0.0807447 -0.00875739 0.0254178 0.0807447 -0.0120509 0.0274732 0.0807447 
-0.0203773 0.0220174 0.0724501 -0.0196574 0.0226625 0.068692 -0.0224533 0.019896 0.0680534 
0.0271813 0.0126955 0.0580093 0.0287257 0.00865064 0.060689 0.028725 0.00865285 0.0555475 
-0.00247738 -0.0298975 0.0807447 -0.000122576 -0.0268323 0.0807447 -0.00437754 -0.0252867 0.0807447 
0.028725 0.00865285 0.0555475 0.0287257 0.00865064 0.060689 0.0296813 0.0043611 0.0582101 
0.0295908 0.00493784 0.0807447 0.0262923 0.00664646 0.0807447 0.0254585 0.00211549 0.0807447 
0.0233864 0.0102056 0.0807447 0.0262923 0.00664646 0.0807447 0.0283745 0.00974098 0.0807447 
-0.0295908 0.00493784 0.0807447 -0.0269306 0.00213112 0.0807447 -0.0247613 0.00595337 0.0807447 
0.03 -7.34788e-18 0.0557447 0.0296735 0.00441397 0.0530219 0.0296813 0.0043611 0.0582101 
0.0296813 0.0043611 0.0582101 0.0296735 0.00441397 0.0530219 0.028725 0.00865285 0.0555475 
0.0296673 0.00445554 0.0632537 0.0287447 0.00858747 0.0655949 0.0296632 0.00448286 0.0681924 
0.00909105 -0.0285894 0.0726233 0.00891898 -0.0286435 0.0769277 0.00474583 -0.0296222 0.0764677 
-0.0283745 -0.00974098 0.0807447 -0.0244738 -0.0106783 0.0807447 -0.0252385 -0.00663486 0.0807447 
-0.0274732 -0.0120509 0.076455 -0.0270769 -0.0129166 0.0722029 -0.0249996 -0.0165837 0.0762763 
-0.0210811 -0.013826 0.0807447 -0.0244738 -0.0106783 0.0807447 -0.0263842 -0.0142784 0.0807447 
0.03 -7.34788e-18 0.0407447 0.0296775 0.00438705 0.0380768 0.0296753 0.00440175 0.0432 
0.0296753 0.00440175 0.0432 0.0296775 0.00438705 0.0380768 0.0287363 0.00861529 0.0405651 
0.0126602 -0.0271978 0.0750473 0.0155927 -0.0256294 0.0773263 0.0120509 -0.0274732 0.0807447 
0.0120509 -0.0274732 0.0807447 0.00891898 -0.0286435 0.0769277 0.0126602 -0.0271978 0.0750473 
0.0190501 0.0231753 0.0705263 0.0156247 0.0256099 0.0677537 0.0154644 0.025707 0.0725605 
-0.0219391 -0.00367156 0.0807447 -0.026125 -0.00201284 0.0807447 -0.0252385 -0.00663486 0.0807447 
0.03 -7.34788e-18 0.0457447 0.029667 0.00445746 0.0481332 0.03 -7.34788e-18 0.0507447 
-0.0295908 -0.00493784 0.0807447 -0.026125 -0.00201284 0.0807447 -0.03 -6.29394e-17 0.0807447 
-0.0247613 0.00595337 0.0807447 -0.024489 0.0105266 0.0807447 -0.0283745 0.00974098 0.0807447 
0.0288978 -0.00805702 0.0454039 0.0297246 -0.00405578 0.0429538 0.029721 -0.00408211 0.0482208 
-0.00306504 0.0210841 0.0807447 -0.00480389 0.0254027 0.0807447 -0.0076627 0.0219387 0.0807447 
0.025115 0.0164084 0.076455 0.0274732 0.0120509 0.0771825 0.0272641 0.0125168 0.072984 
0.0271813 0.0126955 0.0580093 0.0271824 0.0126932 0.0629567 0.0287257 0.00865064 0.060689 
0.0255076 -0.0157913 0.0354662 0.0274246 -0.012161 0.0329117 0.0274671 -0.0120648 0.0381045 
-0.00437754 -0.0252867 0.0807447 -0.00884013 -0.0252871 0.0807447 -0.00736456 -0.029082 0.0807447 
0.03 -7.34788e-18 0.0507447 0.0296735 0.00441397 0.0530219 0.03 -7.34788e-18 0.0557447 
0.0220706 0.0203197 0.0734143 0.0220717 0.0203184 0.0775085 0.025115 0.0164084 0.076455 
-0.0164084 -0.025115 0.0807447 -0.0122417 -0.0232057 0.0807447 -0.0159919 -0.0205249 0.0807447 
0.0296632 0.00448286 0.0681924 0.0287447 0.00858747 0.0655949 0.0288042 0.00838565 0.0705774 
0.03 -7.34788e-18 0.0357447 0.0296775 0.00438705 0.0380768 0.03 -7.34788e-18 0.0407447 
0.0287363 0.00861529 0.0405651 0.0287337 0.00862422 0.0455452 0.0296753 0.00440175 0.0432 
0.00814478 -0.0242894 0.0807447 0.00371169 -0.0256228 0.0807447 0.00736456 -0.029082 0.0807447 
0.0202787 -0.0221082 0.0697553 0.0169668 -0.0247412 0.0677053 0.0202447 -0.0221394 0.0651593 
0.0288042 0.00838565 0.0705774 0.0297081 0.00417465 0.0729931 0.0296632 0.00448286 0.0681924 
-0.00437754 -0.0252867 0.0807447 -0.000122576 -0.0268323 0.0807447 -9.41575e-05 -0.0230183 0.0807447 
0.0169091 -0.0247807 0.0627364 0.0202509 -0.0221337 0.0602933 0.0202447 -0.0221394 0.0651593 
0.0202447 -0.0221394 0.0651593 0.0169668 -0.0247412 0.0677053 0.0169091 -0.0247807 0.0627364 
0.00736456 -0.029082 0.0807447 0.00371169 -0.0256228 0.0807447 0.00247738 -0.0298975 0.0807447 
0.00736456 0.029082 0.0807447 0.00475217 0.0262618 0.0807447 0.00844368 0.024816 0.0807447 
0.0120509 0.0274732 0.0807447 0.0122843 0.0228125 0.0807447 0.0164084 0.025115 0.0807447 
0.0190979 0.0173202 0.0807447 0.0220564 0.0145128 0.0807447 0.0236742 0.0184264 0.0807447 
0.0203184 -0.0220717 0.0807447 0.0193677 -0.0178292 0.0807447 0.0157279 -0.0202072 0.0807447 
-0.0159919 -0.0205249 0.0807447 -0.0192711 -0.0181234 0.0807447 -0.0203184 -0.0220717 0.0807447 
-0.0236742 -0.0184264 0.0807447 -0.0192711 -0.0181234 0.0807447 -0.0210811 -0.013826 0.0807447 
0.00247738 0.0298975 0.0807447 0.00475217 0.0262618 0.0807447 0.00736456 0.029082 0.0807447 
0.00844368 0.024816 0.0807447 0.0122843 0.0228125 0.0807447 0.0120509 0.0274732 0.0807447 
0.0202509 -0.0221337 0.0602933 0.016887 -0.0247957 0.0577874 0.0202331 -0.02215 0.0553353 
0.0236742 0.0184264 0.0807447 0.0220564 0.0145128 0.0807447 0.0263842 0.0142784 0.0807447 
0.03 -7.34788e-18 0.0507447 0.029667 0.00445746 0.0481332 0.0296735 0.00441397 0.0530219 
-0.0189852 0.0170671 0.0807447 -0.0155033 0.0203259 0.0807447 -0.0203184 0.0220717 0.0807447 
-0.0164084 0.025115 0.0807447 -0.0155033 0.0203259 0.0807447 -0.0119049 0.0231923 0.0807447 
0.00050668 0.0249923 0.0807447 0.00475217 0.0262618 0.0807447 0.00247738 0.0298975 0.0807447 
0.0164084 0.025115 0.0807447 0.0157653 0.0203057 0.0807447 0.0203184 0.0220717 0.0807447 
0.0169091 -0.0247807 0.0627364 0.016887 -0.0247957 0.0577874 0.0202509 -0.0221337 0.0602933 
0.0157279 -0.0202072 0.0807447 0.0123194 -0.0226331 0.0807447 0.0164084 -0.025115 0.0807447 
0.0202331 -0.02215 0.0553353 0.0202263 -0.0221562 0.0503429 0.0231557 -0.0190739 0.0528448 
-0.0203184 0.0220717 0.0807447 -0.0155033 0.0203259 0.0807447 -0.0164084 0.025115 0.0807447 
0.0154644 0.025707 0.0725605 0.0142784 0.0263842 0.0769158 0.0184264 0.0236742 0.076455 
0.03 -7.34788e-18 0.0357447 0.0296729 0.00441821 0.0331611 0.0296775 0.00438705 0.0380768 
0.02139 -0.0141683 0.0807447 0.0193677 -0.0178292 0.0807447 0.0236742 -0.0184264 0.0807447 
0.0168646 -0.024811 0.0528279 0.0202263 -0.0221562 0.0503429 0.0202331 -0.02215 0.0553353 
0.0120509 -0.0274732 0.0807447 0.0123194 -0.0226331 0.0807447 0.00814478 -0.0242894 0.0807447 
-0.0203184 -0.0220717 0.0807447 -0.0192711 -0.0181234 0.0807447 -0.0236742 -0.0184264 0.0807447 
0.0263842 -0.0142784 0.0807447 0.023376 -0.0105655 0.0807447 0.02139 -0.0141683 0.0807447 
0.0203184 0.0220717 0.0807447 0.0157653 0.0203057 0.0807447 0.0190979 0.0173202 0.0807447 
0.0164084 -0.025115 0.0807447 0.0123194 -0.0226331 0.0807447 0.0120509 -0.0274732 0.0807447 
0.0263842 0.0142784 0.0807447 0.0220564 0.0145128 0.0807447 0.0233864 0.0102056 0.0807447 
0.03 -7.34788e-18 0.0807447 0.0262759 -0.00240162 0.0807447 0.0295908 -0.00493784 0.0807447 
0.0248596 -0.00634908 0.0807447 0.023376 -0.0105655 0.0807447 0.0283745 -0.00974098 0.0807447 
0.0274671 -0.0120648 0.0381045 0.0274246 -0.012161 0.0329117 0.0288784 -0.0081264 0.0356076 
0.0283745 -0.00974098 0.0807447 0.023376 -0.0105655 0.0807447 0.0263842 -0.0142784 0.0807447 
0.0295908 -0.00493784 0.0807447 0.0262759 -0.00240162 0.0807447 0.0248596 -0.00634908 0.0807447 
0.0254585 0.00211549 0.0807447 0.0262759 -0.00240162 0.0807447 0.03 -7.34788e-18 0.0807447 
0.0236742 -0.0184264 0.0807447 0.0193677 -0.0178292 0.0807447 0.0203184 -0.0220717 0.0807447 
0.0296813 0.0043611 0.0582101 0.0287257 0.00865064 0.060689 0.0296673 0.00445554 0.0632537 
-0.0236742 0.0184264 0.0807447 -0.0220227 0.0136092 0.0807447 -0.0189852 0.0170671 0.0807447 
-0.0263842 0.0142784 0.0807447 -0.0220227 0.0136092 0.0807447 -0.0236742 0.0184264 0.0807447 
0.0297263 -0.00404294 0.0381444 0.0288784 -0.0081264 0.0356076 0.0297233 -0.00406542 0.0332065 
0.02249 0.0198545 0.0480169 0.019423 0.0228637 0.0455329 0.0194115 0.0228734 0.0505016 
-0.0176812 0.0123146 0.0807447 -0.0209022 0.00905108 0.0807447 -0.0165367 0.00759335 0.0807447 
0.0201589 0.00236947 0.0807447 0.0228419 0.00568166 0.0807447 0.0189144 0.00707811 0.0807447 
-0.0274804 0.0120344 0.0479532 -0.0289216 0.0079713 0.0504188 -0.0274681 0.0120624 0.0529219 
0.0297263 -0.00404294 0.0381444 0.0297233 -0.00406542 0.0332065 0.03 -7.34788e-18 0.0357447 
-0.0254839 0.0158294 0.0454763 -0.0229573 0.0193123 0.0479548 -0.022966 0.0193019 0.043001 
0.0214704 -0.00283669 0.0807447 0.0170352 -0.00513945 0.0807447 0.0200699 -0.00761178 0.0807447 
-0.0274804 0.0120344 0.0479532 -0.0254683 0.0158546 0.0504375 -0.0254839 0.0158294 0.0454763 
-0.0274681 0.0120624 0.0529219 -0.0254683 0.0158546 0.0504375 -0.0274804 0.0120344 0.0479532 
0.0262759 -0.00240162 0.0807447 0.0214704 -0.00283669 0.0807447 0.0248596 -0.00634908 0.0807447 
-0.00736456 0.029082 0.0807447 -0.00480389 0.0254027 0.0807447 -0.00247738 0.0298975 0.0807447 
-0.02891 0.00801312 0.0553904 -0.0289101 0.0080129 0.0603473 -0.0274414 0.0121231 0.057902 
-0.024918 -0.0167061 0.055343 -0.0270481 -0.012977 0.0528684 -0.0249214 -0.016701 0.0503826 
-0.00247738 0.0298975 0.0807447 -0.00480389 0.0254027 0.0807447 0.00050668 0.0249923 0.0807447 
0.03 -7.34788e-18 0.0657447 0.0297315 -0.00400457 0.0681184 0.0297211 -0.00408097 0.0631184 
0.0296813 0.0043611 0.0582101 0.0296673 0.00445554 0.0632537 0.03 -7.34788e-18 0.0607447 
-0.0155033 0.0203259 0.0807447 -0.0110301 0.0188699 0.0807447 -0.0119049 0.0231923 0.0807447 
-0.0270481 -0.012977 0.0528684 -0.0270508 -0.0129712 0.0479085 -0.0249214 -0.016701 0.0503826 
-0.0254683 0.0158546 0.0504375 -0.0229573 0.0193123 0.0479548 -0.0254839 0.0158294 0.0454763 
-0.0286238 -0.00898217 0.0503939 -0.0286202 -0.00899352 0.0553508 -0.0296122 -0.00480829 0.0528802 
-0.0210329 -0.00857697 0.0807447 -0.0219391 -0.00367156 0.0807447 -0.0252385 -0.00663486 0.0807447 
0.00050668 0.0249923 0.0807447 -0.00480389 0.0254027 0.0807447 -0.00306504 0.0210841 0.0807447 
0.00756968 -0.0163985 0.0807447 0.0120396 -0.017547 0.0807447 0.0111119 -0.0129281 0.0807447 
-0.0175293 -0.00534917 0.0807447 -0.0219391 -0.00367156 0.0807447 -0.0210329 -0.00857697 0.0807447 
0.0178597 0.0123767 0.0807447 0.0151607 0.0162574 0.0807447 0.0124538 0.0129968 0.0807447 
-0.0189852 0.0170671 0.0807447 -0.0220227 0.0136092 0.0807447 -0.0176812 0.0123146 0.0807447 
-0.0296132 -0.00480194 0.0479204 -0.0286238 -0.00898217 0.0503939 -0.0296122 -0.00480829 0.0528802 
0.0194115 0.0228734 0.0505016 0.019423 0.0228637 0.0455329 0.0159489 0.0254093 0.0480178 
0.0164569 -0.00110475 0.0807447 0.0170352 -0.00513945 0.0807447 0.0214704 -0.00283669 0.0807447 
0.015062 -0.00917333 0.0807447 0.0170352 -0.00513945 0.0807447 0.0129972 -0.0046275 0.0807447 
-0.019186 -0.0230629 0.0503745 -0.019191 -0.0230587 0.0454132 -0.0156996 -0.0255641 0.0478891 
-0.0152457 -0.0157881 0.0807447 -0.0123473 -0.0194528 0.0807447 -0.00987953 -0.0164218 0.0807447 
0.00450018 -0.0206173 0.0807447 0.00891473 -0.0202971 0.0807447 0.00756968 -0.0163985 0.0807447 
-0.00306504 0.0210841 0.0807447 -0.0076627 0.0219387 0.0807447 -0.00640818 0.0176548 0.0807447 
-0.000595274 -0.0186108 0.0807447 -0.0036895 -0.0211171 0.0807447 -9.41575e-05 -0.0230183 0.0807447 
-0.00809412 -0.0211818 0.0807447 -0.0036895 -0.0211171 0.0807447 -0.00528641 -0.0174878 0.0807447 
-0.0159919 -0.0205249 0.0807447 -0.0123473 -0.0194528 0.0807447 -0.0152457 -0.0157881 0.0807447 
-0.0274681 0.0120624 0.0529219 -0.02891 0.00801312 0.0553904 -0.0274414 0.0121231 0.057902 
-0.0230511 0.00103609 0.0807447 -0.0219391 -0.00367156 0.0807447 -0.0186531 -0.000485601 0.0807447 
-0.0289216 0.0079713 0.0504188 -0.02891 0.00801312 0.0553904 -0.0274681 0.0120624 0.0529219 
0.0122843 0.0228125 0.0807447 0.00935195 0.0210524 0.0807447 0.0113385 0.0181284 0.0807447 
-0.0249214 -0.016701 0.0503826 -0.0222802 -0.0200897 0.0528599 -0.024918 -0.0167061 0.055343 
-0.00640818 0.0176548 0.0807447 -0.0110301 0.0188699 0.0807447 -0.00983278 0.0143111 0.0807447 
-0.00983278 0.0143111 0.0807447 -0.0143728 0.0156392 0.0807447 -0.0131961 0.0109457 0.0807447 
-0.0222847 -0.0200847 0.0478978 -0.0222802 -0.0200897 0.0528599 -0.0249214 -0.016701 0.0503826 
-9.41575e-05 -0.0230183 0.0807447 -0.0036895 -0.0211171 0.0807447 -0.00437754 -0.0252867 0.0807447 
0.03 -7.34788e-18 0.0757447 0.029745 -0.00390313 0.0731016 0.03 -7.34788e-18 0.0707447 
-0.0128847 0.0270922 0.0504526 -0.0165939 0.0249929 0.0479671 -0.0166091 0.0249828 0.0529195 
-0.0222847 -0.0200847 0.0478978 -0.019186 -0.0230629 0.0503745 -0.0222802 -0.0200897 0.0528599 
0.0200699 -0.00761178 0.0807447 0.023376 -0.0105655 0.0807447 0.0248596 -0.00634908 0.0807447 
0.029745 -0.00390313 0.0731016 0.0297315 -0.00400457 0.0681184 0.03 -7.34788e-18 0.0707447 
0.023169 -0.0190578 0.0578181 0.0202331 -0.02215 0.0553353 0.0231557 -0.0190739 0.0528448 
-0.0230511 0.00103609 0.0807447 -0.026125 -0.00201284 0.0807447 -0.0219391 -0.00367156 0.0807447 
0.03 -7.34788e-18 0.0657447 0.0296673 0.00445554 0.0632537 0.0296632 0.00448286 0.0681924 
-0.0152457 -0.0157881 0.0807447 -0.0192711 -0.0181234 0.0807447 -0.0159919 -0.0205249 0.0807447 
-0.0270481 -0.012977 0.0528684 -0.0286202 -0.00899352 0.0553508 -0.0286238 -0.00898217 0.0503939 
-0.0270481 -0.012977 0.0528684 -0.0286238 -0.00898217 0.0503939 -0.0270508 -0.0129712 0.0479085 
0.03 -7.34788e-18 0.0657447 0.0296632 0.00448286 0.0681924 0.03 -7.34788e-18 0.0707447 
0.03 -7.34788e-18 0.0557447 0.0297208 -0.00408319 0.0581108 0.0297181 -0.0041029 0.0531588 
-0.0222847 -0.0200847 0.0478978 -0.019191 -0.0230587 0.0454132 -0.019186 -0.0230629 0.0503745 
0.019435 0.0228534 0.0405756 0.0159583 0.0254034 0.0430623 0.019423 0.0228637 0.0455329 
-0.0299953 -0.000529141 0.0504046 -0.0296132 -0.00480194 0.0479204 -0.0296122 -0.00480829 0.0528802 
-0.0165367 0.00759335 0.0807447 -0.0209022 0.00905108 0.0807447 -0.0198826 0.00432235 0.0807447 
0.0111119 -0.0129281 0.0807447 0.0120396 -0.017547 0.0807447 0.0159555 -0.0144888 0.0807447 
0.0254585 0.00211549 0.0807447 0.0228419 0.00568166 0.0807447 0.0201589 0.00236947 0.0807447 
-0.0253617 0.0160245 0.0603479 -0.0273778 0.0122661 0.0629592 -0.0252092 0.0162634 0.0651565 
-0.0165818 0.0250009 0.043013 -0.0128532 0.0271071 0.0455004 -0.0128413 0.0271127 0.0405412 
-0.0198826 0.00432235 0.0807447 -0.0209022 0.00905108 0.0807447 -0.0247613 0.00595337 0.0807447 
0.02139 -0.0141683 0.0807447 0.0184672 -0.0112631 0.0807447 0.0159555 -0.0144888 0.0807447 
-0.0175293 -0.00534917 0.0807447 -0.0210329 -0.00857697 0.0807447 -0.0165351 -0.0104289 0.0807447 
0.0255794 -0.0156746 0.0652785 0.0231296 -0.0191056 0.0676972 0.0231627 -0.0190654 0.0627799 
-0.0131961 0.0109457 0.0807447 -0.0143728 0.0156392 0.0807447 -0.0176812 0.0123146 0.0807447 
-0.0128847 0.0270922 0.0504526 -0.0128532 0.0271071 0.0455004 -0.0165939 0.0249929 0.0479671 
-0.022966 0.0193019 0.043001 -0.0229573 0.0193123 0.0479548 -0.0199789 0.0223795 0.0454835 
0.0214704 -0.00283669 0.0807447 0.0200699 -0.00761178 0.0807447 0.0248596 -0.00634908 0.0807447 
0.0189144 0.00707811 0.0807447 0.0178597 0.0123767 0.0807447 0.0139478 0.00826628 0.0807447 
0.0231296 -0.0191056 0.0676972 0.0202787 -0.0221082 0.0697553 0.0202447 -0.0221394 0.0651593 
0.0139478 0.00826628 0.0807447 0.0178597 0.0123767 0.0807447 0.0124538 0.0129968 0.0807447 
-0.0299953 -0.000532277 0.0553667 -0.0297625 0.00376772 0.0528941 -0.0299953 -0.000529141 0.0504046 
0.00914992 -0.0285706 0.0528296 0.00497511 -0.0295846 0.0553111 0.00496861 -0.0295857 0.0503518 
0.0120396 -0.017547 0.0807447 0.00891473 -0.0202971 0.0807447 0.0123194 -0.0226331 0.0807447 
0.0231557 -0.0190739 0.0528448 0.0202263 -0.0221562 0.0503429 0.0231554 -0.0190743 0.0478544 
0.0192161 0.0230378 0.0654446 0.0156247 0.0256099 0.0677537 0.0190501 0.0231753 0.0705263 
-0.0220227 0.0136092 0.0807447 -0.024489 0.0105266 0.0807447 -0.0209022 0.00905108 0.0807447 
0.0104845 0.00476988 0.0807447 0.0139478 0.00826628 0.0807447 0.00914902 0.00951011 0.0807447 
-0.0299953 -0.000529141 0.0504046 -0.0296122 -0.00480829 0.0528802 -0.0299953 -0.000532277 0.0553667 
0.000676864 -0.0299924 0.0429077 0.000683285 -0.0299922 0.047872 -0.00361468 -0.0297814 0.0453942 
0.0231296 -0.0191056 0.0676972 0.0202447 -0.0221394 0.0651593 0.0231627 -0.0190654 0.0627799 
0.023376 -0.0105655 0.0807447 0.0184672 -0.0112631 0.0807447 0.02139 -0.0141683 0.0807447 
0.0152921 0.00356892 0.0807447 0.0139478 0.00826628 0.0807447 0.0104845 0.00476988 0.0807447 
0.00493967 -0.0295905 0.0703915 0.000490621 -0.029996 0.0726411 0.000690357 -0.0299921 0.0677075 
0.00914902 0.00951011 0.0807447 0.0139478 0.00826628 0.0807447 0.0124538 0.0129968 0.0807447 
0.0189144 0.00707811 0.0807447 0.0139478 0.00826628 0.0807447 0.0152921 0.00356892 0.0807447 
0.0193237 0.0229476 0.0604448 0.0158025 0.0255006 0.0628626 0.0192161 0.0230378 0.0654446 
0.0111119 -0.0129281 0.0807447 0.00979689 -0.0081546 0.0807447 0.00630495 -0.0117307 0.0807447 
0.00979689 -0.0081546 0.0807447 0.015062 -0.00917333 0.0807447 0.0129972 -0.0046275 0.0807447 
0.0111119 -0.0129281 0.0807447 0.015062 -0.00917333 0.0807447 0.00979689 -0.0081546 0.0807447 
0.00358503 -0.00228145 0.0807447 0.00835543 -0.00346515 0.0807447 0.00702628 0.00124848 0.0807447 
0.0113385 0.0181284 0.0807447 0.0151607 0.0162574 0.0807447 0.0157653 0.0203057 0.0807447 
-0.00902008 0.0286119 0.0579148 -0.00892097 0.0286429 0.0529482 -0.0129293 0.0270709 0.0553993 
0.00630495 -0.0117307 0.0807447 0.00979689 -0.0081546 0.0807447 0.00495016 -0.0070021 0.0807447 
0.00799583 0.0289148 0.0628742 0.00795195 0.0289269 0.0677618 0.0119491 0.0275176 0.0652687 
-0.0165939 0.0249929 0.0479671 -0.0128532 0.0271071 0.0455004 -0.0165818 0.0250009 0.043013 
0.0256067 -0.01563 0.0602853 0.0231627 -0.0190654 0.0627799 0.023169 -0.0190578 0.0578181 
0.00702628 0.00124848 0.0807447 0.00835543 -0.00346515 0.0807447 0.0117816 4.48598e-05 0.0807447 
0.00496282 -0.0295867 0.0453866 0.000683285 -0.0299922 0.047872 0.000676864 -0.0299924 0.0429077 
0.00495016 -0.0070021 0.0807447 0.00835543 -0.00346515 0.0807447 0.00358503 -0.00228145 0.0807447 
0.0117816 4.48598e-05 0.0807447 0.00835543 -0.00346515 0.0807447 0.0129972 -0.0046275 0.0807447 
0.00496394 -0.0295865 0.0652367 0.00493967 -0.0295905 0.0703915 0.000690357 -0.0299921 0.0677075 
-0.0157193 -0.025552 0.0676573 -0.0191692 -0.0230769 0.0702045 -0.0191819 -0.0230663 0.0652446 
0.0111119 -0.0129281 0.0807447 0.0159555 -0.0144888 0.0807447 0.015062 -0.00917333 0.0807447 
0.00496861 -0.0295857 0.0503518 0.000683285 -0.0299922 0.047872 0.00496282 -0.0295867 0.0453866 
-0.0199789 0.0223795 0.0454835 -0.0199754 0.0223826 0.0504364 -0.0165939 0.0249929 0.0479671 
0.00170261 0.0199253 0.0807447 -0.00306504 0.0210841 0.0807447 -0.00171542 0.0165759 0.0807447 
0.0224993 0.0198439 0.0430479 0.019423 0.0228637 0.0455329 0.02249 0.0198545 0.0480169 
-0.00171542 0.0165759 0.0807447 -0.00306504 0.0210841 0.0807447 -0.00640818 0.0176548 0.0807447 
0.0192161 0.0230378 0.0654446 0.0190501 0.0231753 0.0705263 0.0222925 0.0200759 0.0680653 
0.0296775 0.00438705 0.0380768 0.0296729 0.00441821 0.0331611 0.0287431 0.00859267 0.0356151 
0.0255794 -0.0156746 0.0652785 0.0255067 -0.0157926 0.0703743 0.0231296 -0.0191056 0.0676972 
-0.0297625 0.00376752 0.0578537 -0.0297625 0.00376772 0.0528941 -0.0299953 -0.000532277 0.0553667 
0.00170261 0.0199253 0.0807447 -0.00171542 0.0165759 0.0807447 0.00305038 0.0154113 0.0807447 
0.0297211 -0.00408097 0.0631184 0.0297208 -0.00408319 0.0581108 0.03 -7.34788e-18 0.0607447 
0.00305038 0.0154113 0.0807447 -0.00171542 0.0165759 0.0807447 -0.000388486 0.0119076 0.0807447 
-0.0051264 0.0130917 0.0807447 -0.00171542 0.0165759 0.0807447 -0.00640818 0.0176548 0.0807447 
0.03 -7.34788e-18 0.0557447 0.0296813 0.0043611 0.0582101 0.03 -7.34788e-18 0.0607447 
0.000670816 -0.0299925 0.0379411 -0.00362572 -0.0297801 0.0354651 0.000666027 -0.0299926 0.0329756 
0.00305038 0.0154113 0.0807447 -0.000388486 0.0119076 0.0807447 0.00437898 0.0107297 0.0807447 
0.0224993 0.0198439 0.0430479 0.0225134 0.0198279 0.0380937 0.019435 0.0228534 0.0405756 
-0.0156879 -0.0255713 0.0627462 -0.0157193 -0.025552 0.0676573 -0.0191819 -0.0230663 0.0652446 
0.0256275 -0.0155959 0.0553256 0.023169 -0.0190578 0.0578181 0.0231557 -0.0190739 0.0528448 
0.00437898 0.0107297 0.0807447 -0.000388486 0.0119076 0.0807447 0.000927363 0.00719508 0.0807447 
-0.0297625 0.00376752 0.0578537 -0.0289101 0.0080129 0.0603473 -0.02891 0.00801312 0.0553904 
-0.000388486 0.0119076 0.0807447 -0.00171542 0.0165759 0.0807447 -0.0051264 0.0130917 0.0807447 
0.000927363 0.00719508 0.0807447 -0.000388486 0.0119076 0.0807447 -0.0038409 0.00840691 0.0807447 
-0.0038409 0.00840691 0.0807447 -0.000388486 0.0119076 0.0807447 -0.0051264 0.0130917 0.0807447 
0.0272085 0.0126372 0.0380774 0.0272251 0.0126013 0.033131 0.0251298 0.0163858 0.0356104 
0.00224885 0.00245636 0.0807447 0.000927363 0.00719508 0.0807447 -0.00253304 0.00367461 0.0807447 
0.00437898 0.0107297 0.0807447 0.000927363 0.00719508 0.0807447 0.0057057 0.00598784 0.0807447 
0.03 -7.34788e-18 0.0657447 0.0297211 -0.00408097 0.0631184 0.03 -7.34788e-18 0.0607447 
0.00916363 -0.0285662 0.0577899 0.0131502 -0.0269643 0.0553048 0.0131694 -0.0269549 0.0602647 
0.0057057 0.00598784 0.0807447 0.000927363 0.00719508 0.0807447 0.00224885 0.00245636 0.0807447 
-0.00361194 -0.0297818 0.0651612 -0.0035739 -0.0297864 0.0698129 -0.00781413 -0.0289644 0.0676151 
0.0193237 0.0229476 0.0604448 0.0192161 0.0230378 0.0654446 0.0223889 0.0199684 0.0629776 
-0.00253304 0.00367461 0.0807447 0.000927363 0.00719508 0.0807447 -0.0038409 0.00840691 0.0807447 
0.0113385 0.0181284 0.0807447 0.00649523 0.0189422 0.0807447 0.0078412 0.0143448 0.0807447 
0.0078412 0.0143448 0.0807447 0.00649523 0.0189422 0.0807447 0.00305038 0.0154113 0.0807447 
0.00630495 -0.0117307 0.0807447 0.00495016 -0.0070021 0.0807447 0.00151338 -0.0105529 0.0807447 
0.00649523 0.0189422 0.0807447 0.00170261 0.0199253 0.0807447 0.00305038 0.0154113 0.0807447 
-0.0199789 0.0223795 0.0454835 -0.0229573 0.0193123 0.0479548 -0.0199754 0.0223826 0.0504364 
-0.00328617 -0.00934559 0.0807447 0.000148391 -0.0058171 0.0807447 -0.00464997 -0.00460866 0.0807447 
-0.0297625 0.00376752 0.0578537 -0.02891 0.00801312 0.0553904 -0.0297625 0.00376772 0.0528941 
0.0131642 -0.0269575 0.0701849 0.00909105 -0.0285894 0.0726233 0.00914953 -0.0285707 0.0677033 
0.000148391 -0.0058171 0.0807447 0.00495016 -0.0070021 0.0807447 0.00358503 -0.00228145 0.0807447 
-0.00464997 -0.00460866 0.0807447 0.000148391 -0.0058171 0.0807447 -0.00120231 -0.0010755 0.0807447 
0.00151338 -0.0105529 0.0807447 0.000148391 -0.0058171 0.0807447 -0.00328617 -0.00934559 0.0807447 
-0.000357296 0.0299979 0.0331183 -0.00464491 0.0296382 0.035592 -0.000368438 0.0299977 0.0380775 
0.00914953 -0.0285707 0.0677033 0.00493967 -0.0295905 0.0703915 0.00496394 -0.0295865 0.0652367 
0.00914643 -0.0285717 0.0478654 0.00496861 -0.0295857 0.0503518 0.00496282 -0.0295867 0.0453866 
0.0251119 0.0164132 0.0405628 0.0251298 0.0163858 0.0356104 0.0225134 0.0198279 0.0380937 
-0.00120231 -0.0010755 0.0807447 0.000148391 -0.0058171 0.0807447 0.00358503 -0.00228145 0.0807447 
0.0231627 -0.0190654 0.0627799 0.0202509 -0.0221337 0.0602933 0.023169 -0.0190578 0.0578181 
0.00151338 -0.0105529 0.0807447 0.00495016 -0.0070021 0.0807447 0.000148391 -0.0058171 0.0807447 
-0.00465254 0.029637 0.0405523 -0.00464491 0.0296382 0.035592 -0.00883376 0.0286699 0.038067 
0.00496861 -0.0295857 0.0503518 0.000688203 -0.0299921 0.0528319 0.000683285 -0.0299922 0.047872 
-0.0116124 -0.0117373 0.0807447 -0.00812738 -0.00816729 0.0807447 -0.0129013 -0.00692497 0.0807447 
0.00914992 -0.0285706 0.0528296 0.00496861 -0.0295857 0.0503518 0.00914643 -0.0285717 0.0478654 
0.0201813 -0.0221972 0.0403989 0.0168315 -0.0248334 0.0379043 0.0201701 -0.0222073 0.0354077 
0.0256067 -0.01563 0.0602853 0.0255794 -0.0156746 0.0652785 0.0231627 -0.0190654 0.0627799 
0.03 -7.34788e-18 0.0607447 0.0296673 0.00445554 0.0632537 0.03 -7.34788e-18 0.0657447 
-0.0141047 -0.0019928 0.0807447 -0.00943154 -0.00337269 0.0807447 -0.0107428 0.00140721 0.0807447 
0.03 -7.34788e-18 0.0557447 0.0297181 -0.0041029 0.0531588 0.03 -7.34788e-18 0.0507447 
-0.000368438 0.0299977 0.0380775 -0.00464491 0.0296382 0.035592 -0.00465254 0.029637 0.0405523 
-0.0165939 0.0249929 0.0479671 -0.0199754 0.0223826 0.0504364 -0.0166091 0.0249828 0.0529195 
-0.0156926 -0.0255684 0.0578044 -0.0156879 -0.0255713 0.0627462 -0.0191822 -0.0230661 0.0602885 
-0.0129293 0.0270709 0.0553993 -0.00892097 0.0286429 0.0529482 -0.0128847 0.0270922 0.0504526 
0.00909105 -0.0285894 0.0726233 0.00493967 -0.0295905 0.0703915 0.00914953 -0.0285707 0.0677033 
0.0202509 -0.0221337 0.0602933 0.0202331 -0.02215 0.0553353 0.023169 -0.0190578 0.0578181 
0.0131407 -0.0269689 0.0503432 0.00914992 -0.0285706 0.0528296 0.00914643 -0.0285717 0.0478654 
-0.00855295 0.00964356 0.0807447 -0.00983278 0.0143111 0.0807447 -0.0131961 0.0109457 0.0807447 
0.03 -7.34788e-18 0.0707447 0.0297315 -0.00400457 0.0681184 0.03 -7.34788e-18 0.0657447 
-0.0130304 0.0270224 0.0725004 -0.0166893 0.0249292 0.0724205 -0.0143363 0.0263528 0.07649 
-0.0051264 0.0130917 0.0807447 -0.00983278 0.0143111 0.0807447 -0.00855295 0.00964356 0.0807447 
0.00392504 0.0297421 0.0356027 -0.000357296 0.0299979 0.0331183 -0.000368438 0.0299977 0.0380775 
0.0156247 0.0256099 0.0677537 0.0118367 0.0275662 0.069944 0.0154644 0.025707 0.0725605 
0.0131642 -0.0269575 0.0701849 0.0126602 -0.0271978 0.0750473 0.00909105 -0.0285894 0.0726233 
-0.0051264 0.0130917 0.0807447 -0.00640818 0.0176548 0.0807447 -0.00983278 0.0143111 0.0807447 
0.03 -7.34788e-18 0.0407447 0.0296753 0.00440175 0.0432 0.03 -7.34788e-18 0.0457447 
-0.0252092 0.0162634 0.0651565 -0.0273778 0.0122661 0.0629592 -0.0271371 0.0127897 0.0684482 
-0.00943154 -0.00337269 0.0807447 -0.00812738 -0.00816729 0.0807447 -0.00464997 -0.00460866 0.0807447 
-0.00668676 -0.0128729 0.0807447 -0.00812738 -0.00816729 0.0807447 -0.0116124 -0.0117373 0.0807447 
-0.0107428 0.00140721 0.0807447 -0.00943154 -0.00337269 0.0807447 -0.00598711 0.000149091 0.0807447 
0.0288784 -0.0081264 0.0356076 0.0288848 -0.00810373 0.0405327 0.0274671 -0.0120648 0.0381045 
-0.0156949 -0.025567 0.0528485 -0.019186 -0.0230629 0.0503745 -0.0156996 -0.0255641 0.0478891 
0.019435 0.0228534 0.0405756 0.0225134 0.0198279 0.0380937 0.0194517 0.0228393 0.0356187 
-0.0128413 0.0271127 0.0405412 -0.0128532 0.0271071 0.0455004 -0.00884205 0.0286674 0.043027 
-0.0129013 -0.00692497 0.0807447 -0.00943154 -0.00337269 0.0807447 -0.0141047 -0.0019928 0.0807447 
0.000490621 -0.029996 0.0726411 -0.0035739 -0.0297864 0.0698129 0.000690357 -0.0299921 0.0677075 
0.03 -7.34788e-18 0.0407447 0.0297263 -0.00404294 0.0381444 0.03 -7.34788e-18 0.0357447 
0.00813823 0.0288751 0.0331289 0.00392504 0.0297421 0.0356027 0.00812989 0.0288774 0.0380895 
-0.00598711 0.000149091 0.0807447 -0.00943154 -0.00337269 0.0807447 -0.00464997 -0.00460866 0.0807447 
-0.0183217 -0.0237553 0.0764761 -0.0198556 -0.022489 0.0734897 -0.0161629 -0.0252737 0.0724763 
0.00813823 0.0288751 0.0331289 0.00812989 0.0288774 0.0380895 0.0121797 0.0274163 0.0356143 
-0.0120054 0.00619111 0.0807447 -0.00855295 0.00964356 0.0807447 -0.0131961 0.0109457 0.0807447 
0.0192161 0.0230378 0.0654446 0.0222925 0.0200759 0.0680653 0.0223889 0.0199684 0.0629776 
-0.0222784 -0.0200916 0.0627495 -0.0222811 -0.0200886 0.0676041 -0.0249154 -0.0167099 0.0652392 
-0.0191822 -0.0230661 0.0602885 -0.0156879 -0.0255713 0.0627462 -0.0191819 -0.0230663 0.0652446 
0.0274802 -0.0120349 0.0678973 0.0274476 -0.012109 0.073016 0.0255067 -0.0157926 0.0703743 
0.00151338 -0.0105529 0.0807447 -0.00328617 -0.00934559 0.0807447 -0.00190874 -0.0140446 0.0807447 
0.0256063 -0.0156306 0.05033 0.0231557 -0.0190739 0.0528448 0.0231554 -0.0190743 0.0478544 
0.00392504 0.0297421 0.0356027 0.00391625 0.0297433 0.0405651 0.00812989 0.0288774 0.0380895 
-0.0038409 0.00840691 0.0807447 -0.0051264 0.0130917 0.0807447 -0.00855295 0.00964356 0.0807447 
-0.0072933 0.0049091 0.0807447 -0.00855295 0.00964356 0.0807447 -0.0120054 0.00619111 0.0807447 
0.00392504 0.0297421 0.0356027 -0.000368438 0.0299977 0.0380775 0.00391625 0.0297433 0.0405651 
-0.0222811 -0.0200886 0.0676041 -0.0249343 -0.0166817 0.0702237 -0.0249154 -0.0167099 0.0652392 
0.000670816 -0.0299925 0.0379411 0.000666027 -0.0299926 0.0329756 0.00494989 -0.0295888 0.0354513 
-0.0038409 0.00840691 0.0807447 -0.00855295 0.00964356 0.0807447 -0.0072933 0.0049091 0.0807447 
-0.0129013 -0.00692497 0.0807447 -0.00812738 -0.00816729 0.0807447 -0.00943154 -0.00337269 0.0807447 
-0.00190874 -0.0140446 0.0807447 -0.00328617 -0.00934559 0.0807447 -0.00668676 -0.0128729 0.0807447 
-0.0153383 0.00282112 0.0807447 -0.0198826 0.00432235 0.0807447 -0.0186531 -0.000485601 0.0807447 
0.0168416 -0.0248266 0.0428825 0.0131278 -0.0269752 0.0404023 0.0168315 -0.0248334 0.0379043 
0.03 -7.34788e-18 0.0507447 0.029721 -0.00408211 0.0482208 0.03 -7.34788e-18 0.0457447 
-0.0296153 -0.00478916 0.0380068 -0.029617 -0.00477853 0.0330504 -0.0286299 -0.00896271 0.0355224 
-0.025094 0.0164405 0.0764591 -0.0236742 0.0184264 0.0724112 -0.0261034 0.0147856 0.0722515 
0.03 -7.34788e-18 0.0607447 0.0297208 -0.00408319 0.0581108 0.03 -7.34788e-18 0.0557447 
-0.0165367 0.00759335 0.0807447 -0.0198826 0.00432235 0.0807447 -0.0153383 0.00282112 0.0807447 
-0.0118838 -0.0275459 0.0651824 -0.0156879 -0.0255713 0.0627462 -0.0118785 -0.0275482 0.0602732 
0.0121479 0.0274304 0.0504951 0.00809815 0.0288863 0.0529716 0.012136 0.0274357 0.0554568 
-0.0198826 0.00432235 0.0807447 -0.0230511 0.00103609 0.0807447 -0.0186531 -0.000485601 0.0807447 
-0.00464997 -0.00460866 0.0807447 -0.00812738 -0.00816729 0.0807447 -0.00328617 -0.00934559 0.0807447 
-0.0118785 -0.0275482 0.0602732 -0.0156879 -0.0255713 0.0627462 -0.0156926 -0.0255684 0.0578044 
-0.00362106 -0.0297807 0.0404304 -0.00362572 -0.0297801 0.0354651 0.000670816 -0.0299925 0.0379411 
-0.000368438 0.0299977 0.0380775 -0.000375922 0.0299976 0.043039 0.00391625 0.0297433 0.0405651 
-0.000595274 -0.0186108 0.0807447 -9.41575e-05 -0.0230183 0.0807447 0.00450018 -0.0206173 0.0807447 
-0.00782288 -0.0289621 0.0627328 -0.0118838 -0.0275459 0.0651824 -0.0118785 -0.0275482 0.0602732 
0.000690357 -0.0299921 0.0677075 -0.0035739 -0.0297864 0.0698129 -0.00361194 -0.0297818 0.0651612 
0.0263842 -0.0142784 0.0807447 0.02139 -0.0141683 0.0807447 0.0236742 -0.0184264 0.0807447 
-0.00361194 -0.0297818 0.0651612 -0.00781413 -0.0289644 0.0676151 -0.00782288 -0.0289621 0.0627328 
-0.000595274 -0.0186108 0.0807447 0.00450018 -0.0206173 0.0807447 0.00289521 -0.0153307 0.0807447 
-0.000368438 0.0299977 0.0380775 -0.00465254 0.029637 0.0405523 -0.000375922 0.0299976 0.043039 
0.00736456 0.029082 0.0807447 0.00844368 0.024816 0.0807447 0.0120509 0.0274732 0.0807447 
-0.0236742 -0.0184264 0.0807447 -0.0210811 -0.013826 0.0807447 -0.0263842 -0.0142784 0.0807447 
-0.00528641 -0.0174878 0.0807447 -0.000595274 -0.0186108 0.0807447 -0.00190874 -0.0140446 0.0807447 
-0.00987953 -0.0164218 0.0807447 -0.00668676 -0.0128729 0.0807447 -0.0116124 -0.0117373 0.0807447 
-0.00465254 0.029637 0.0405523 -0.00465956 0.0296359 0.0455128 -0.000375922 0.0299976 0.043039 
-0.00781413 -0.0289644 0.0676151 -0.0118838 -0.0275459 0.0651824 -0.00782288 -0.0289621 0.0627328 
-0.0236742 0.0184264 0.0807447 -0.0189852 0.0170671 0.0807447 -0.0203184 0.0220717 0.0807447 
0.00289521 -0.0153307 0.0807447 0.00450018 -0.0206173 0.0807447 0.00756968 -0.0163985 0.0807447 
0.00289521 -0.0153307 0.0807447 0.00151338 -0.0105529 0.0807447 -0.00190874 -0.0140446 0.0807447 
0.0201813 -0.0221972 0.0403989 0.0201701 -0.0222073 0.0354077 0.0230922 -0.0191507 0.037937 
-0.000595274 -0.0186108 0.0807447 0.00289521 -0.0153307 0.0807447 -0.00190874 -0.0140446 0.0807447 
-0.00781413 -0.0289644 0.0676151 -0.011967 -0.0275098 0.0699508 -0.0118838 -0.0275459 0.0651824 
-0.0191819 -0.0230663 0.0652446 -0.0222811 -0.0200886 0.0676041 -0.0222784 -0.0200916 0.0627495 
-0.0191692 -0.0230769 0.0702045 -0.0222811 -0.0200886 0.0676041 -0.0191819 -0.0230663 0.0652446 
0.0256275 -0.0155959 0.0553256 0.0256067 -0.01563 0.0602853 0.023169 -0.0190578 0.0578181 
-0.0274414 0.0121231 0.057902 -0.0273778 0.0122661 0.0629592 -0.0253617 0.0160245 0.0603479 
-0.0156926 -0.0255684 0.0578044 -0.0191827 -0.0230656 0.0553335 -0.0156949 -0.025567 0.0528485 
-0.0165704 0.0250085 0.0330965 -0.019973 0.0223848 0.0355693 -0.016577 0.0250041 0.0380549 
-0.00465956 0.0296359 0.0455128 -0.00886422 0.0286605 0.0479881 -0.00467171 0.029634 0.0504735 
-0.0118812 -0.027547 0.0553221 -0.0156926 -0.0255684 0.0578044 -0.0156949 -0.025567 0.0528485 
0.00914992 -0.0285706 0.0528296 0.00916363 -0.0285662 0.0577899 0.00497511 -0.0295846 0.0553111 
-0.00784369 -0.0289565 0.0379548 -0.00784773 -0.0289554 0.0329911 -0.00362572 -0.0297801 0.0354651 
-0.00528641 -0.0174878 0.0807447 -0.00190874 -0.0140446 0.0807447 -0.00668676 -0.0128729 0.0807447 
0.00380237 0.0297581 0.0604166 -0.000569289 0.0299946 0.0629075 0.00376878 0.0297623 0.0653493 
-0.0203773 0.0220174 0.0724501 -0.0236742 0.0184264 0.0724112 -0.0220614 0.0203296 0.0764816 
-0.0118843 -0.0275457 0.0503637 -0.0156949 -0.025567 0.0528485 -0.0156996 -0.0255641 0.0478891 
-0.0297607 0.00378148 0.0330609 -0.0299957 -0.000509448 0.0355343 -0.029762 0.00377141 0.0380186 
-0.0299953 -0.000529141 0.0504046 -0.0297625 0.00376772 0.0528941 -0.0297633 0.00376116 0.0479322 
-0.0118838 -0.0275459 0.0651824 -0.0157193 -0.025552 0.0676573 -0.0156879 -0.0255713 0.0627462 
-0.027056 -0.0129604 0.0379947 -0.0249314 -0.0166861 0.03551 -0.0249278 -0.0166914 0.0404664 
-0.00465254 0.029637 0.0405523 -0.00884205 0.0286674 0.043027 -0.00465956 0.0296359 0.0455128 
-0.0156926 -0.0255684 0.0578044 -0.0191822 -0.0230661 0.0602885 -0.0191827 -0.0230656 0.0553335 
-0.0050392 0.0295737 0.0654201 -0.000569289 0.0299946 0.0629075 -0.00484436 0.0296063 0.0604332 
-0.00987953 -0.0164218 0.0807447 -0.00528641 -0.0174878 0.0807447 -0.00668676 -0.0128729 0.0807447 
-0.0166761 0.0249381 0.067537 -0.0132343 0.0269231 0.0651557 -0.0166707 0.0249417 0.0627267 
0.0251048 0.016424 0.0455326 0.0224993 0.0198439 0.0430479 0.02249 0.0198545 0.0480169 
0.02249 0.0198545 0.0480169 0.0194115 0.0228734 0.0505016 0.0224771 0.019869 0.0529932 
-0.00465956 0.0296359 0.0455128 -0.00467171 0.029634 0.0504735 -0.000384935 0.0299975 0.0479997 
-0.0295908 0.00493784 0.0807447 -0.0247613 0.00595337 0.0807447 -0.0283745 0.00974098 0.0807447 
0.0168416 -0.0248266 0.0428825 0.0168315 -0.0248334 0.0379043 0.0201813 -0.0221972 0.0403989 
0.00380237 0.0297581 0.0604166 0.00376878 0.0297623 0.0653493 0.00799583 0.0289148 0.0628742 
-0.00247738 0.0298975 0.0807447 0.00050668 0.0249923 0.0807447 0.00247738 0.0298975 0.0807447 
-0.0118906 -0.027543 0.0454041 -0.0156996 -0.0255641 0.0478891 -0.0157056 -0.0255604 0.0429292 
-0.00484436 0.0296063 0.0604332 -0.000569289 0.0299946 0.0629075 -0.000473653 0.0299963 0.0579312 
0.012136 0.0274357 0.0554568 0.00809815 0.0288863 0.0529716 0.00807342 0.0288932 0.0579358 
-0.00467171 0.029634 0.0504735 -0.00476148 0.0296197 0.0554463 -0.000397187 0.0299974 0.0529596 
0.00289521 -0.0153307 0.0807447 0.00756968 -0.0163985 0.0807447 0.00630495 -0.0117307 0.0807447 
-0.00987953 -0.0164218 0.0807447 -0.00809412 -0.0211818 0.0807447 -0.00528641 -0.0174878 0.0807447 
0.00756968 -0.0163985 0.0807447 0.0111119 -0.0129281 0.0807447 0.00630495 -0.0117307 0.0807447 
-0.00902008 0.0286119 0.0579148 -0.00924118 0.0285412 0.063004 -0.00484436 0.0296063 0.0604332 
-0.00476148 0.0296197 0.0554463 -0.00484436 0.0296063 0.0604332 -0.000473653 0.0299963 0.0579312 
0.00289521 -0.0153307 0.0807447 0.00630495 -0.0117307 0.0807447 0.00151338 -0.0105529 0.0807447 
-0.00924118 0.0285412 0.063004 -0.0103706 0.0281505 0.0685061 -0.0050392 0.0295737 0.0654201 
0.0203184 0.0220717 0.0807447 0.0190979 0.0173202 0.0807447 0.0236742 0.0184264 0.0807447 
-0.00247738 -0.0298975 0.0807447 -0.00437754 -0.0252867 0.0807447 -0.00736456 -0.029082 0.0807447 
-0.00924118 0.0285412 0.063004 -0.0132343 0.0269231 0.0651557 -0.0103706 0.0281505 0.0685061 
0.0203184 -0.0220717 0.0807447 0.0157279 -0.0202072 0.0807447 0.0164084 -0.025115 0.0807447 
-0.0289178 0.00798499 0.0355464 -0.0297607 0.00378148 0.0330609 -0.029762 0.00377141 0.0380186 
0.0120509 -0.0274732 0.0807447 0.00814478 -0.0242894 0.0807447 0.00736456 -0.029082 0.0807447 
-0.0152457 -0.0157881 0.0807447 -0.00987953 -0.0164218 0.0807447 -0.0116124 -0.0117373 0.0807447 
-0.0118812 -0.027547 0.0553221 -0.0118785 -0.0275482 0.0602732 -0.0156926 -0.0255684 0.0578044 
0.0263842 0.0142784 0.0807447 0.0233864 0.0102056 0.0807447 0.0283745 0.00974098 0.0807447 
-0.0283745 -0.00974098 0.0807447 -0.0252385 -0.00663486 0.0807447 -0.0295908 -0.00493784 0.0807447 
-0.011967 -0.0275098 0.0699508 -0.0157193 -0.025552 0.0676573 -0.0118838 -0.0275459 0.0651824 
-0.016577 0.0250041 0.0380549 -0.0199768 0.0223814 0.0405275 -0.0165818 0.0250009 0.043013 
-0.0270407 -0.0129923 0.0627598 -0.0270191 -0.0130372 0.0676113 -0.0285903 -0.0090881 0.0651755 
-0.0191822 -0.0230661 0.0602885 -0.0222791 -0.0200908 0.057815 -0.0191827 -0.0230656 0.0553335 
-0.0103706 0.0281505 0.0685061 -0.00494722 0.0295893 0.0702772 -0.0050392 0.0295737 0.0654201 
-0.00465254 0.029637 0.0405523 -0.00883376 0.0286699 0.038067 -0.00884205 0.0286674 0.043027 
-0.00883376 0.0286699 0.038067 -0.0128413 0.0271127 0.0405412 -0.00884205 0.0286674 0.043027 
-0.0164084 0.025115 0.0807447 -0.0119049 0.0231923 0.0807447 -0.0120509 0.0274732 0.0807447 
-0.00924118 0.0285412 0.063004 -0.0050392 0.0295737 0.0654201 -0.00484436 0.0296063 0.0604332 
-0.00476148 0.0296197 0.0554463 -0.00892097 0.0286429 0.0529482 -0.00902008 0.0286119 0.0579148 
0.00812989 0.0288774 0.0380895 0.0121708 0.0274203 0.0405769 0.0121797 0.0274163 0.0356143 
-0.0164084 -0.025115 0.0807447 -0.0159919 -0.0205249 0.0807447 -0.0203184 -0.0220717 0.0807447 
-0.00476148 0.0296197 0.0554463 -0.000473653 0.0299963 0.0579312 -0.000397187 0.0299974 0.0529596 
-0.0118843 -0.0275457 0.0503637 -0.0118812 -0.027547 0.0553221 -0.0156949 -0.025567 0.0528485 
-0.000527162 0.0299954 0.0677673 0.00386038 0.0297506 0.0703239 0.00376878 0.0297623 0.0653493 
-0.00902008 0.0286119 0.0579148 -0.0130627 0.0270068 0.0603151 -0.00924118 0.0285412 0.063004 
-0.00476148 0.0296197 0.0554463 -0.00902008 0.0286119 0.0579148 -0.00484436 0.0296063 0.0604332 
-0.0270191 -0.0130372 0.0676113 -0.0285673 -0.00916029 0.0698176 -0.0285903 -0.0090881 0.0651755 
0.0295908 0.00493784 0.0807447 0.0254585 0.00211549 0.0807447 0.03 -7.34788e-18 0.0807447 
-0.0249278 -0.0166914 0.0404664 -0.0249314 -0.0166861 0.03551 -0.0222928 -0.0200756 0.0379821 
-0.0199768 0.0223814 0.0405275 -0.0199789 0.0223795 0.0454835 -0.0165818 0.0250009 0.043013 
-0.0128338 0.0271163 0.0355818 -0.0165704 0.0250085 0.0330965 -0.016577 0.0250041 0.0380549 
0.0295908 -0.00493784 0.0807447 0.0248596 -0.00634908 0.0807447 0.0283745 -0.00974098 0.0807447 
-0.0165351 -0.0104289 0.0807447 -0.0152457 -0.0157881 0.0807447 -0.0116124 -0.0117373 0.0807447 
0.0220504 -0.0203416 0.0764845 0.0229611 -0.0193077 0.07235 0.025115 -0.0164084 0.076455 
0.00376878 0.0297623 0.0653493 0.00795195 0.0289269 0.0677618 0.00799583 0.0289148 0.0628742 
0.0202447 -0.0221394 0.0651593 0.0202509 -0.0221337 0.0602933 0.0231627 -0.0190654 0.0627799 
-0.0299955 -0.000517653 0.0404908 -0.0299957 -0.000509448 0.0355343 -0.0296153 -0.00478916 0.0380068 
-0.022962 0.0193067 0.0330853 -0.0254842 0.015829 0.035558 -0.0229654 0.0193025 0.0380434 
-0.029762 0.00377141 0.0380186 -0.0299957 -0.000509448 0.0355343 -0.0299955 -0.000517653 0.0404908 
-0.00883376 0.0286699 0.038067 -0.0128338 0.0271163 0.0355818 -0.0128413 0.0271127 0.0405412 
-0.0299954 -0.000524057 0.045447 -0.0296132 -0.00480194 0.0479204 -0.0299953 -0.000529141 0.0504046 
-0.0289198 0.00797775 0.0405037 -0.0289178 0.00798499 0.0355464 -0.029762 0.00377141 0.0380186 
-0.0165351 -0.0104289 0.0807447 -0.0116124 -0.0117373 0.0807447 -0.0129013 -0.00692497 0.0807447 
-0.0175293 -0.00534917 0.0807447 -0.0165351 -0.0104289 0.0807447 -0.0129013 -0.00692497 0.0807447 
-0.00467171 0.029634 0.0504735 -0.000397187 0.0299974 0.0529596 -0.000384935 0.0299975 0.0479997 
-0.0249343 -0.0166817 0.0702237 -0.0270191 -0.0130372 0.0676113 -0.0249154 -0.0167099 0.0652392 
-0.0191822 -0.0230661 0.0602885 -0.0222784 -0.0200916 0.0627495 -0.0222791 -0.0200908 0.057815 
0.000685382 -0.0299922 0.0627477 0.000690357 -0.0299921 0.0677075 -0.00361194 -0.0297818 0.0651612 
-0.00884205 0.0286674 0.043027 -0.00886422 0.0286605 0.0479881 -0.00465956 0.0296359 0.0455128 
-0.0175293 -0.00534917 0.0807447 -0.0129013 -0.00692497 0.0807447 -0.0141047 -0.0019928 0.0807447 
0.0121479 0.0274304 0.0504951 0.00811101 0.0288827 0.0480103 0.00809815 0.0288863 0.0529716 
-0.00465956 0.0296359 0.0455128 -0.000384935 0.0299975 0.0479997 -0.000375922 0.0299976 0.043039 
-0.0222784 -0.0200916 0.0627495 -0.0249154 -0.0167099 0.0652392 -0.024915 -0.0167105 0.0602955 
-0.0222784 -0.0200916 0.0627495 -0.024915 -0.0167105 0.0602955 -0.0222791 -0.0200908 0.057815 
-0.0166374 0.0249639 0.0578297 -0.0166707 0.0249417 0.0627267 -0.0130627 0.0270068 0.0603151 
-0.0166707 0.0249417 0.0627267 -0.0132343 0.0269231 0.0651557 -0.0130627 0.0270068 0.0603151 
0.0119491 0.0275176 0.0652687 0.0156247 0.0256099 0.0677537 0.0158025 0.0255006 0.0628626 
-0.0186531 -0.000485601 0.0807447 -0.0175293 -0.00534917 0.0807447 -0.0141047 -0.0019928 0.0807447 
-0.0131961 0.0109457 0.0807447 -0.0176812 0.0123146 0.0807447 -0.0165367 0.00759335 0.0807447 
-0.0153383 0.00282112 0.0807447 -0.0186531 -0.000485601 0.0807447 -0.0141047 -0.0019928 0.0807447 
-0.0120054 0.00619111 0.0807447 -0.0131961 0.0109457 0.0807447 -0.0165367 0.00759335 0.0807447 
-0.0199398 0.0224144 0.060308 -0.0197996 0.0225383 0.0649075 -0.0166707 0.0249417 0.0627267 
-0.0249154 -0.0167099 0.0652392 -0.0270191 -0.0130372 0.0676113 -0.0270407 -0.0129923 0.0627598 
-0.0120054 0.00619111 0.0807447 -0.0165367 0.00759335 0.0807447 -0.0153383 0.00282112 0.0807447 
-0.0128847 0.0270922 0.0504526 -0.00892097 0.0286429 0.0529482 -0.00886422 0.0286605 0.0479881 
-0.0153383 0.00282112 0.0807447 -0.0141047 -0.0019928 0.0807447 -0.0107428 0.00140721 0.0807447 
-0.0295988 -0.0048898 0.0627832 -0.0295842 -0.00497768 0.0677019 -0.0299925 -0.000672162 0.0651809 
-0.0199768 0.0223814 0.0405275 -0.022966 0.0193019 0.043001 -0.0199789 0.0223795 0.0454835 
-0.000473653 0.0299963 0.0579312 -0.000569289 0.0299946 0.0629075 0.00380237 0.0297581 0.0604166 
0.0131937 -0.026943 0.0652307 0.0131642 -0.0269575 0.0701849 0.00914953 -0.0285707 0.0677033 
-0.016577 0.0250041 0.0380549 -0.0165818 0.0250009 0.043013 -0.0128413 0.0271127 0.0405412 
-0.0120054 0.00619111 0.0807447 -0.0153383 0.00282112 0.0807447 -0.0107428 0.00140721 0.0807447 
-0.0072933 0.0049091 0.0807447 -0.0120054 0.00619111 0.0807447 -0.0107428 0.00140721 0.0807447 
-0.00253304 0.00367461 0.0807447 -0.0038409 0.00840691 0.0807447 -0.0072933 0.0049091 0.0807447 
-0.0128338 0.0271163 0.0355818 -0.016577 0.0250041 0.0380549 -0.0128413 0.0271127 0.0405412 
-0.0072933 0.0049091 0.0807447 -0.0107428 0.00140721 0.0807447 -0.00598711 0.000149091 0.0807447 
-0.0156996 -0.0255641 0.0478891 -0.019191 -0.0230587 0.0454132 -0.0157056 -0.0255604 0.0429292 
-0.00253304 0.00367461 0.0807447 -0.0072933 0.0049091 0.0807447 -0.00598711 0.000149091 0.0807447 
-0.00598711 0.000149091 0.0807447 -0.00464997 -0.00460866 0.0807447 -0.00120231 -0.0010755 0.0807447 
0.0272085 0.0126372 0.0380774 0.0251298 0.0163858 0.0356104 0.0251119 0.0164132 0.0405628 
-0.0166374 0.0249639 0.0578297 -0.0199619 0.0223947 0.0553707 -0.0199398 0.0224144 0.060308 
-0.00328617 -0.00934559 0.0807447 -0.00812738 -0.00816729 0.0807447 -0.00668676 -0.0128729 0.0807447 
-0.0191822 -0.0230661 0.0602885 -0.0191819 -0.0230663 0.0652446 -0.0222784 -0.0200916 0.0627495 
-0.00253304 0.00367461 0.0807447 -0.00598711 0.000149091 0.0807447 -0.00120231 -0.0010755 0.0807447 
0.0124538 0.0129968 0.0807447 0.0113385 0.0181284 0.0807447 0.0078412 0.0143448 0.0807447 
0.00224885 0.00245636 0.0807447 -0.00253304 0.00367461 0.0807447 -0.00120231 -0.0010755 0.0807447 
-0.0197996 0.0225383 0.0649075 -0.0166761 0.0249381 0.067537 -0.0166707 0.0249417 0.0627267 
-0.0296153 -0.00478916 0.0380068 -0.0299957 -0.000509448 0.0355343 -0.029617 -0.00477853 0.0330504 
0.0078412 0.0143448 0.0807447 0.00305038 0.0154113 0.0807447 0.00437898 0.0107297 0.0807447 
-0.0166374 0.0249639 0.0578297 -0.0199398 0.0224144 0.060308 -0.0166707 0.0249417 0.0627267 
-0.0274841 0.012026 0.0380316 -0.0289178 0.00798499 0.0355464 -0.0289198 0.00797775 0.0405037 
0.00914902 0.00951011 0.0807447 0.0124538 0.0129968 0.0807447 0.0078412 0.0143448 0.0807447 
0.0256063 -0.0156306 0.05033 0.0256275 -0.0155959 0.0553256 0.0231557 -0.0190739 0.0528448 
0.00224885 0.00245636 0.0807447 -0.00120231 -0.0010755 0.0807447 0.00358503 -0.00228145 0.0807447 
-0.0227521 0.0195535 0.0628037 -0.0224533 0.019896 0.0680534 -0.0197996 0.0225383 0.0649075 
-0.0199768 0.0223814 0.0405275 -0.0229654 0.0193025 0.0380434 -0.022966 0.0193019 0.043001 
-0.0249154 -0.0167099 0.0652392 -0.0270407 -0.0129923 0.0627598 -0.024915 -0.0167105 0.0602955 
-0.0229654 0.0193025 0.0380434 -0.0254865 0.0158252 0.0405167 -0.022966 0.0193019 0.043001 
-0.0254865 0.0158252 0.0405167 -0.0274857 0.0120224 0.0429898 -0.0254839 0.0158294 0.0454763 
0.00914902 0.00951011 0.0807447 0.0078412 0.0143448 0.0807447 0.00437898 0.0107297 0.0807447 
0.0250269 0.0165425 0.0706045 0.0272641 0.0125168 0.072984 0.0271795 0.0126993 0.0679265 
0.00914902 0.00951011 0.0807447 0.00437898 0.0107297 0.0807447 0.0057057 0.00598784 0.0807447 
0.00224885 0.00245636 0.0807447 0.00358503 -0.00228145 0.0807447 0.00702628 0.00124848 0.0807447 
-0.0299954 -0.000524057 0.045447 -0.0299953 -0.000529141 0.0504046 -0.0297633 0.00376116 0.0479322 
-0.019973 0.0223848 0.0355693 -0.022962 0.0193067 0.0330853 -0.0229654 0.0193025 0.0380434 
0.00835543 -0.00346515 0.0807447 0.00979689 -0.0081546 0.0807447 0.0129972 -0.0046275 0.0807447 
0.0225134 0.0198279 0.0380937 0.0251298 0.0163858 0.0356104 0.0225299 0.0198092 0.0331391 
-0.0254865 0.0158252 0.0405167 -0.0254839 0.0158294 0.0454763 -0.022966 0.0193019 0.043001 
0.0057057 0.00598784 0.0807447 0.00224885 0.00245636 0.0807447 0.00702628 0.00124848 0.0807447 
-0.0129293 0.0270709 0.0553993 -0.0166374 0.0249639 0.0578297 -0.0130627 0.0270068 0.0603151 
0.0159356 0.0254176 0.0529813 0.0121479 0.0274304 0.0504951 0.012136 0.0274357 0.0554568 
-0.0274811 0.0120328 0.0330741 -0.0289178 0.00798499 0.0355464 -0.0274841 0.012026 0.0380316 
-0.0199398 0.0224144 0.060308 -0.0227521 0.0195535 0.0628037 -0.0197996 0.0225383 0.0649075 
0.0104845 0.00476988 0.0807447 0.00914902 0.00951011 0.0807447 0.0057057 0.00598784 0.0807447 
-0.0199789 0.0223795 0.0454835 -0.0165939 0.0249929 0.0479671 -0.0165818 0.0250009 0.043013 
-0.0297967 0.003487 0.0677074 -0.0297941 0.00350863 0.0726915 -0.0290536 0.00747574 0.0702698 
-0.0274841 0.012026 0.0380316 -0.0289198 0.00797775 0.0405037 -0.0274857 0.0120224 0.0429898 
-0.0254842 0.015829 0.035558 -0.0274811 0.0120328 0.0330741 -0.0274841 0.012026 0.0380316 
-0.0296122 -0.00480829 0.0528802 -0.0286202 -0.00899352 0.0553508 -0.0296101 -0.00482114 0.0578357 
0.0104845 0.00476988 0.0807447 0.0057057 0.00598784 0.0807447 0.00702628 0.00124848 0.0807447 
-0.0295842 -0.00497768 0.0677019 -0.0299917 -0.000706058 0.0699051 -0.0299925 -0.000672162 0.0651809 
-0.0289217 0.00797077 0.0454605 -0.0289216 0.0079713 0.0504188 -0.0274804 0.0120344 0.0479532 
-0.00784369 -0.0289565 0.0379548 -0.00362572 -0.0297801 0.0354651 -0.00362106 -0.0297807 0.0404304 
-0.0130627 0.0270068 0.0603151 -0.0132343 0.0269231 0.0651557 -0.00924118 0.0285412 0.063004 
0.0158025 0.0255006 0.0628626 0.0156247 0.0256099 0.0677537 0.0192161 0.0230378 0.0654446 
0.0159713 0.0253952 0.0381028 0.019435 0.0228534 0.0405756 0.0194517 0.0228393 0.0356187 
0.0104845 0.00476988 0.0807447 0.00702628 0.00124848 0.0807447 0.0117816 4.48598e-05 0.0807447 
-0.0143728 0.0156392 0.0807447 -0.0155033 0.0203259 0.0807447 -0.0189852 0.0170671 0.0807447 
0.0152921 0.00356892 0.0807447 0.0104845 0.00476988 0.0807447 0.0117816 4.48598e-05 0.0807447 
-0.0191827 -0.0230656 0.0553335 -0.019186 -0.0230629 0.0503745 -0.0156949 -0.025567 0.0528485 
0.0117816 4.48598e-05 0.0807447 0.0129972 -0.0046275 0.0807447 0.0164569 -0.00110475 0.0807447 
-0.0289198 0.00797775 0.0405037 -0.0297628 0.00376507 0.0429752 -0.0289217 0.00797077 0.0454605 
-0.0289198 0.00797775 0.0405037 -0.0289217 0.00797077 0.0454605 -0.0274857 0.0120224 0.0429898 
-0.029762 0.00377141 0.0380186 -0.0299955 -0.000517653 0.0404908 -0.0297628 0.00376507 0.0429752 
0.00495016 -0.0070021 0.0807447 0.00979689 -0.0081546 0.0807447 0.00835543 -0.00346515 0.0807447 
-0.0176812 0.0123146 0.0807447 -0.0143728 0.0156392 0.0807447 -0.0189852 0.0170671 0.0807447 
-0.0297633 0.00376116 0.0479322 -0.0297625 0.00376772 0.0528941 -0.0289216 0.0079713 0.0504188 
-0.0285673 -0.00916029 0.0698176 -0.0295842 -0.00497768 0.0677019 -0.0285903 -0.0090881 0.0651755 
0.0152921 0.00356892 0.0807447 0.0117816 4.48598e-05 0.0807447 0.0164569 -0.00110475 0.0807447 
-0.0299955 -0.000517653 0.0404908 -0.0296142 -0.00479604 0.042963 -0.0299954 -0.000524057 0.045447 
0.0201589 0.00236947 0.0807447 0.0189144 0.00707811 0.0807447 0.0152921 0.00356892 0.0807447 
-0.0299955 -0.000517653 0.0404908 -0.0299954 -0.000524057 0.045447 -0.0297628 0.00376507 0.0429752 
-0.0176812 0.0123146 0.0807447 -0.0220227 0.0136092 0.0807447 -0.0209022 0.00905108 0.0807447 
-0.0254865 0.0158252 0.0405167 -0.0274841 0.012026 0.0380316 -0.0274857 0.0120224 0.0429898 
0.0120396 -0.017547 0.0807447 0.0123194 -0.0226331 0.0807447 0.0157279 -0.0202072 0.0807447 
-0.0297967 0.003487 0.0677074 -0.0290536 0.00747574 0.0702698 -0.0289287 0.00794543 0.0652884 
-0.0289198 0.00797775 0.0405037 -0.029762 0.00377141 0.0380186 -0.0297628 0.00376507 0.0429752 
0.0250985 0.0164336 0.0505118 0.02249 0.0198545 0.0480169 0.0224771 0.019869 0.0529932 
-0.0299925 -0.000672162 0.0651809 -0.0297967 0.003487 0.0677074 -0.0297674 0.00372845 0.0628063 
-0.0166091 0.0249828 0.0529195 -0.0199619 0.0223947 0.0553707 -0.0166374 0.0249639 0.0578297 
-0.016577 0.0250041 0.0380549 -0.019973 0.0223848 0.0355693 -0.0199768 0.0223814 0.0405275 
-0.0274857 0.0120224 0.0429898 -0.0274804 0.0120344 0.0479532 -0.0254839 0.0158294 0.0454763 
0.0201589 0.00236947 0.0807447 0.0152921 0.00356892 0.0807447 0.0164569 -0.00110475 0.0807447 
-0.0118906 -0.027543 0.0454041 -0.0118843 -0.0275457 0.0503637 -0.0156996 -0.0255641 0.0478891 
-0.000569289 0.0299946 0.0629075 -0.000527162 0.0299954 0.0677673 0.00376878 0.0297623 0.0653493 
-0.0270589 -0.0129544 0.0330388 -0.0249314 -0.0166861 0.03551 -0.027056 -0.0129604 0.0379947 
-0.0285903 -0.0090881 0.0651755 -0.0295842 -0.00497768 0.0677019 -0.0295988 -0.0048898 0.0627832 
0.0189144 0.00707811 0.0807447 0.0228419 0.00568166 0.0807447 0.0233864 0.0102056 0.0807447 
-0.0296153 -0.00478916 0.0380068 -0.0286276 -0.00897005 0.0404788 -0.0296142 -0.00479604 0.042963 
-0.0229654 0.0193025 0.0380434 -0.0254842 0.015829 0.035558 -0.0254865 0.0158252 0.0405167 
-0.0286258 -0.00897577 0.0454353 -0.0296132 -0.00480194 0.0479204 -0.0296142 -0.00479604 0.042963 
-0.0119049 0.0231923 0.0807447 -0.0110301 0.0188699 0.0807447 -0.0076627 0.0219387 0.0807447 
-0.0270407 -0.0129923 0.0627598 -0.0285903 -0.0090881 0.0651755 -0.0286083 -0.00903123 0.060297 
-0.0286276 -0.00897005 0.0404788 -0.0270533 -0.012966 0.0429509 -0.0286258 -0.00897577 0.0454353 
0.0159555 -0.0144888 0.0807447 0.0193677 -0.0178292 0.0807447 0.02139 -0.0141683 0.0807447 
-0.0296142 -0.00479604 0.042963 -0.0296132 -0.00480194 0.0479204 -0.0299954 -0.000524057 0.045447 
0.00050668 0.0249923 0.0807447 0.0049706 0.0224562 0.0807447 0.00475217 0.0262618 0.0807447 
0.0200699 -0.00761178 0.0807447 0.0184672 -0.0112631 0.0807447 0.023376 -0.0105655 0.0807447 
-0.0286276 -0.00897005 0.0404788 -0.0286258 -0.00897577 0.0454353 -0.0296142 -0.00479604 0.042963 
-0.0295988 -0.0048898 0.0627832 -0.0299925 -0.000672162 0.0651809 -0.0299949 -0.000552234 0.0603197 
-0.0143728 0.0156392 0.0807447 -0.0110301 0.0188699 0.0807447 -0.0155033 0.0203259 0.0807447 
-0.0289217 0.00797077 0.0454605 -0.0274804 0.0120344 0.0479532 -0.0274857 0.0120224 0.0429898 
-0.0286276 -0.00897005 0.0404788 -0.027056 -0.0129604 0.0379947 -0.0270533 -0.012966 0.0429509 
-0.0299955 -0.000517653 0.0404908 -0.0296153 -0.00478916 0.0380068 -0.0296142 -0.00479604 0.042963 
0.0190979 0.0173202 0.0807447 0.0151607 0.0162574 0.0807447 0.0178597 0.0123767 0.0807447 
0.0201701 -0.0222073 0.0354077 0.0230725 -0.0191745 0.0329251 0.0230922 -0.0191507 0.037937 
0.015062 -0.00917333 0.0807447 0.0184672 -0.0112631 0.0807447 0.0200699 -0.00761178 0.0807447 
0.00814478 -0.0242894 0.0807447 0.00891473 -0.0202971 0.0807447 0.00450018 -0.0206173 0.0807447 
-0.0199768 0.0223814 0.0405275 -0.019973 0.0223848 0.0355693 -0.0229654 0.0193025 0.0380434 
-0.0222791 -0.0200908 0.057815 -0.0222802 -0.0200897 0.0528599 -0.0191827 -0.0230656 0.0553335 
-0.0254865 0.0158252 0.0405167 -0.0254842 0.015829 0.035558 -0.0274841 0.012026 0.0380316 
-9.41575e-05 -0.0230183 0.0807447 0.00371169 -0.0256228 0.0807447 0.00450018 -0.0206173 0.0807447 
-0.0285903 -0.0090881 0.0651755 -0.0295988 -0.0048898 0.0627832 -0.0286083 -0.00903123 0.060297 
-0.0289217 0.00797077 0.0454605 -0.0297633 0.00376116 0.0479322 -0.0289216 0.0079713 0.0504188 
-0.0249246 -0.0166962 0.0454233 -0.0270508 -0.0129712 0.0479085 -0.0270533 -0.012966 0.0429509 
-0.0199398 0.0224144 0.060308 -0.0199619 0.0223947 0.0553707 -0.0228884 0.0193938 0.0578537 
-0.0270407 -0.0129923 0.0627598 -0.0286083 -0.00903123 0.060297 -0.0270444 -0.0129846 0.0578224 
-0.0228884 0.0193938 0.0578537 -0.0253617 0.0160245 0.0603479 -0.0227521 0.0195535 0.0628037 
0.0201589 0.00236947 0.0807447 0.0164569 -0.00110475 0.0807447 0.0214704 -0.00283669 0.0807447 
-0.0286258 -0.00897577 0.0454353 -0.0286238 -0.00898217 0.0503939 -0.0296132 -0.00480194 0.0479204 
-0.0270407 -0.0129923 0.0627598 -0.0270444 -0.0129846 0.0578224 -0.024915 -0.0167105 0.0602955 
-0.0299925 -0.000672162 0.0651809 -0.0297674 0.00372845 0.0628063 -0.0299949 -0.000552234 0.0603197 
-0.00902008 0.0286119 0.0579148 -0.0129293 0.0270709 0.0553993 -0.0130627 0.0270068 0.0603151 
-0.0270533 -0.012966 0.0429509 -0.0270508 -0.0129712 0.0479085 -0.0286258 -0.00897577 0.0454353 
-0.0297967 0.003487 0.0677074 -0.0289287 0.00794543 0.0652884 -0.0297674 0.00372845 0.0628063 
-0.0270444 -0.0129846 0.0578224 -0.0270481 -0.012977 0.0528684 -0.024918 -0.0167061 0.055343 
-0.0249214 -0.016701 0.0503826 -0.0270508 -0.0129712 0.0479085 -0.0249246 -0.0166962 0.0454233 
-0.0290536 0.00747574 0.0702698 -0.0271371 0.0127897 0.0684482 -0.0289287 0.00794543 0.0652884 
-0.0249278 -0.0166914 0.0404664 -0.0222928 -0.0200756 0.0379821 -0.0222885 -0.0200804 0.0429389 
-0.024915 -0.0167105 0.0602955 -0.024918 -0.0167061 0.055343 -0.0222791 -0.0200908 0.057815 
-0.0254397 0.0159004 0.0553989 -0.0274414 0.0121231 0.057902 -0.0253617 0.0160245 0.0603479 
-0.027056 -0.0129604 0.0379947 -0.0249278 -0.0166914 0.0404664 -0.0270533 -0.012966 0.0429509 
0.0200699 -0.00761178 0.0807447 0.0170352 -0.00513945 0.0807447 0.015062 -0.00917333 0.0807447 
-0.0296153 -0.00478916 0.0380068 -0.0286299 -0.00896271 0.0355224 -0.0286276 -0.00897005 0.0404788 
-0.0076627 0.0219387 0.0807447 -0.0110301 0.0188699 0.0807447 -0.00640818 0.0176548 0.0807447 
-0.0249278 -0.0166914 0.0404664 -0.0249246 -0.0166962 0.0454233 -0.0270533 -0.012966 0.0429509 
-0.0249278 -0.0166914 0.0404664 -0.0222885 -0.0200804 0.0429389 -0.0249246 -0.0166962 0.0454233 
0.0157279 -0.0202072 0.0807447 0.0193677 -0.0178292 0.0807447 0.0159555 -0.0144888 0.0807447 
4.08595e-05 0.03 0.0764834 -0.00492678 0.0295927 0.076362 -0.00247738 0.0298975 0.0807447 
0.00170261 0.0199253 0.0807447 0.0049706 0.0224562 0.0807447 0.00050668 0.0249923 0.0807447 
-0.00975576 0.0283694 0.0764667 -0.0143363 0.0263528 0.07649 -0.0120509 0.0274732 0.0807447 
-0.00736456 -0.029082 0.0807447 -0.00974098 -0.0283745 0.076455 -0.00585665 -0.0294228 0.076508 
-0.0120509 -0.0274732 0.0807447 -0.00974098 -0.0283745 0.076455 -0.00736456 -0.029082 0.0807447 
-0.0263842 -0.0142784 0.0807447 -0.0249996 -0.0165837 0.0762763 -0.0236742 -0.0184264 0.0807447 
0.0157653 0.0203057 0.0807447 0.0122843 0.0228125 0.0807447 0.0113385 0.0181284 0.0807447 
0.00050668 0.0249923 0.0807447 -0.00306504 0.0210841 0.0807447 0.00170261 0.0199253 0.0807447 
0.0159555 -0.0144888 0.0807447 0.0120396 -0.017547 0.0807447 0.0157279 -0.0202072 0.0807447 
-0.00736456 -0.029082 0.0807447 -0.00585665 -0.0294228 0.076508 -0.00247738 -0.0298975 0.0807447 
-0.0247613 0.00595337 0.0807447 -0.0269306 0.00213112 0.0807447 -0.0230511 0.00103609 0.0807447 
0.0178597 0.0123767 0.0807447 0.0220564 0.0145128 0.0807447 0.0190979 0.0173202 0.0807447 
-0.00809412 -0.0211818 0.0807447 -0.00884013 -0.0252871 0.0807447 -0.00437754 -0.0252867 0.0807447 
-0.00437754 -0.0252867 0.0807447 -0.0036895 -0.0211171 0.0807447 -0.00809412 -0.0211818 0.0807447 
-0.0165351 -0.0104289 0.0807447 -0.0210329 -0.00857697 0.0807447 -0.0210811 -0.013826 0.0807447 
0.00247738 -0.0298975 0.0807447 0.00474583 -0.0296222 0.0764677 0.00736456 -0.029082 0.0807447 
0.00450018 -0.0206173 0.0807447 0.00371169 -0.0256228 0.0807447 0.00814478 -0.0242894 0.0807447 
-0.0247613 0.00595337 0.0807447 -0.0230511 0.00103609 0.0807447 -0.0198826 0.00432235 0.0807447 
0.0233864 0.0102056 0.0807447 0.0220564 0.0145128 0.0807447 0.0178597 0.0123767 0.0807447 
0.0254585 0.00211549 0.0807447 0.0214704 -0.00283669 0.0807447 0.0262759 -0.00240162 0.0807447 
-0.0210811 -0.013826 0.0807447 -0.0192711 -0.0181234 0.0807447 -0.0152457 -0.0157881 0.0807447 
-0.0164084 0.025115 0.0807447 -0.0184461 0.0236589 0.0764905 -0.0203184 0.0220717 0.0807447 
-0.0263842 0.0142784 0.0807447 -0.0273396 0.0123509 0.0764685 -0.0283745 0.00974098 0.0807447 
-0.03 -6.29394e-17 0.0807447 -0.0298387 -0.00310698 0.0764926 -0.0295908 -0.00493784 0.0807447 
0.0233864 0.0102056 0.0807447 0.0178597 0.0123767 0.0807447 0.0189144 0.00707811 0.0807447 
0.0254585 0.00211549 0.0807447 0.0201589 0.00236947 0.0807447 0.0214704 -0.00283669 0.0807447 
-0.00736456 0.029082 0.0807447 -0.00975576 0.0283694 0.0764667 -0.0120509 0.0274732 0.0807447 
-0.0164084 -0.025115 0.0807447 -0.0142784 -0.0263842 0.076455 -0.0120509 -0.0274732 0.0807447 
-0.0142784 -0.0263842 0.076455 -0.00974098 -0.0283745 0.076455 -0.0120509 -0.0274732 0.0807447 
0.00247738 0.0298975 0.0807447 4.08595e-05 0.03 0.0764834 -0.00247738 0.0298975 0.0807447 
-0.0120509 0.0274732 0.0807447 -0.0143363 0.0263528 0.07649 -0.0164084 0.025115 0.0807447 
-0.0210811 -0.013826 0.0807447 -0.0152457 -0.0157881 0.0807447 -0.0165351 -0.0104289 0.0807447 
-0.00247738 0.0298975 0.0807447 -0.00492678 0.0295927 0.076362 -0.00736456 0.029082 0.0807447 
4.08595e-05 0.03 0.0764834 0.002524 0.0298936 0.0737238 -0.000571711 0.0299946 0.0721766 
-0.0164084 0.025115 0.0807447 -0.0143363 0.0263528 0.07649 -0.0184461 0.0236589 0.0764905 
-0.0223143 -0.0200517 0.0721179 -0.0198556 -0.022489 0.0734897 -0.0219258 -0.0204758 0.0764472 
-0.00736456 0.029082 0.0807447 -0.00492678 0.0295927 0.076362 -0.00975576 0.0283694 0.0764667 
-0.0297941 0.00350863 0.0726915 -0.0299995 -0.000164879 0.0737676 -0.0298975 0.00247738 0.0770165 
-0.0299954 -0.000524057 0.045447 -0.0297633 0.00376116 0.0479322 -0.0297628 0.00376507 0.0429752 
-0.0297967 0.003487 0.0677074 -0.0299917 -0.000706058 0.0699051 -0.0297941 0.00350863 0.0726915 
0.00916909 -0.0285644 0.0627492 0.00914953 -0.0285707 0.0677033 0.00496394 -0.0295865 0.0652367 
0.0154644 0.025707 0.0725605 0.0122932 0.0273656 0.0738343 0.0142784 0.0263842 0.0769158 
-0.0203184 -0.0220717 0.0807447 -0.0183217 -0.0237553 0.0764761 -0.0164084 -0.025115 0.0807447 
-0.0274732 -0.0120509 0.076455 -0.0283743 -0.00974148 0.0737841 -0.0270769 -0.0129166 0.0722029 
0.0118367 0.0275662 0.069944 0.0122932 0.0273656 0.0738343 0.0154644 0.025707 0.0725605 
-0.000261222 -0.0299989 0.0769404 -0.00297491 -0.0298521 0.0735651 0.000490621 -0.029996 0.0726411 
-0.0295988 -0.0048898 0.0627832 -0.0299949 -0.000552234 0.0603197 -0.0296101 -0.00482114 0.0578357 
-0.0283745 -0.00974098 0.0807447 -0.0274732 -0.0120509 0.076455 -0.0263842 -0.0142784 0.0807447 
-0.0263842 -0.0142784 0.0807447 -0.0274732 -0.0120509 0.076455 -0.0249996 -0.0165837 0.0762763 
-0.0270444 -0.0129846 0.0578224 -0.024918 -0.0167061 0.055343 -0.024915 -0.0167105 0.0602955 
-0.0283745 0.00974098 0.0807447 -0.0289239 0.00796289 0.0764459 -0.0295908 0.00493784 0.0807447 
-0.0273396 0.0123509 0.0764685 -0.0289239 0.00796289 0.0764459 -0.0283745 0.00974098 0.0807447 
-0.0203184 0.0220717 0.0807447 -0.0220614 0.0203296 0.0764816 -0.0236742 0.0184264 0.0807447 
-0.0184461 0.0236589 0.0764905 -0.0220614 0.0203296 0.0764816 -0.0203184 0.0220717 0.0807447 
-0.0129293 0.0270709 0.0553993 -0.0166091 0.0249828 0.0529195 -0.0166374 0.0249639 0.0578297 
0.0289189 -0.00798104 0.0767628 0.0297846 -0.00358885 0.0771349 0.0295908 -0.00493784 0.0807447 
-0.0286276 -0.00897005 0.0404788 -0.0286299 -0.00896271 0.0355224 -0.027056 -0.0129604 0.0379947 
0.029745 -0.00390313 0.0731016 0.0297846 -0.00358885 0.0771349 0.0289189 -0.00798104 0.0767628 
-0.00784369 -0.0289565 0.0379548 -0.0119034 -0.0275374 0.0354826 -0.00784773 -0.0289554 0.0329911 
0.0164084 -0.025115 0.0807447 0.0155927 -0.0256294 0.0773263 0.0184264 -0.0236742 0.076455 
-0.0270508 -0.0129712 0.0479085 -0.0286238 -0.00898217 0.0503939 -0.0286258 -0.00897577 0.0454353 
-0.0286299 -0.00896271 0.0355224 -0.0270589 -0.0129544 0.0330388 -0.027056 -0.0129604 0.0379947 
0.0184264 -0.0236742 0.076455 0.0202524 -0.0221324 0.0737227 0.0220504 -0.0203416 0.0764845 
-0.0295908 -0.00493784 0.0807447 -0.029082 -0.00736456 0.076455 -0.0283745 -0.00974098 0.0807447 
-0.0298387 -0.00310698 0.0764926 -0.029082 -0.00736456 0.076455 -0.0295908 -0.00493784 0.0807447 
0.000490621 -0.029996 0.0726411 -0.00297491 -0.0298521 0.0735651 -0.0035739 -0.0297864 0.0698129 
-0.0295988 -0.0048898 0.0627832 -0.0296101 -0.00482114 0.0578357 -0.0286083 -0.00903123 0.060297 
-0.0197996 0.0225383 0.0649075 -0.0196574 0.0226625 0.068692 -0.0166761 0.0249381 0.067537 
-0.00360826 -0.0297822 0.0602603 -0.00361194 -0.0297818 0.0651612 -0.00782288 -0.0289621 0.0627328 
-0.0199398 0.0224144 0.060308 -0.0228884 0.0193938 0.0578537 -0.0227521 0.0195535 0.0628037 
0.0289012 0.00804489 0.0764914 0.0297817 0.00361278 0.0771111 0.0297081 0.00417465 0.0729931 
-0.0299953 -0.000532277 0.0553667 -0.0296122 -0.00480829 0.0528802 -0.0296101 -0.00482114 0.0578357 
-0.0142784 -0.0263842 0.076455 -0.0120513 -0.027473 0.0738146 -0.00974098 -0.0283745 0.076455 
-0.0236742 0.0184264 0.0807447 -0.025094 0.0164405 0.0764591 -0.0263842 0.0142784 0.0807447 
-0.0263842 0.0142784 0.0807447 -0.025094 0.0164405 0.0764591 -0.0273396 0.0123509 0.0764685 
-0.0299949 -0.000552234 0.0603197 -0.0299953 -0.000532277 0.0553667 -0.0296101 -0.00482114 0.0578357 
-0.0254397 0.0159004 0.0553989 -0.0274681 0.0120624 0.0529219 -0.0274414 0.0121231 0.057902 
-0.0219258 -0.0204758 0.0764472 -0.0183217 -0.0237553 0.0764761 -0.0203184 -0.0220717 0.0807447 
-0.0228884 0.0193938 0.0578537 -0.0254397 0.0159004 0.0553989 -0.0253617 0.0160245 0.0603479 
-0.029082 -0.00736456 0.076455 -0.0274732 -0.0120509 0.076455 -0.0283745 -0.00974098 0.0807447 
0.0131386 -0.02697 0.045374 0.0131278 -0.0269752 0.0404023 0.0168416 -0.0248266 0.0428825 
-0.0164084 -0.025115 0.0807447 -0.0183217 -0.0237553 0.0764761 -0.0142784 -0.0263842 0.076455 
-0.029082 -0.00736456 0.076455 -0.0283743 -0.00974148 0.0737841 -0.0274732 -0.0120509 0.076455 
-0.0166761 0.0249381 0.067537 -0.0135939 0.0267433 0.0689184 -0.0132343 0.0269231 0.0651557 
0.00499562 0.0295811 0.076487 0.002524 0.0298936 0.0737238 4.08595e-05 0.03 0.0764834 
-0.0236742 -0.0184264 0.0807447 -0.0219258 -0.0204758 0.0764472 -0.0203184 -0.0220717 0.0807447 
-0.0249996 -0.0165837 0.0762763 -0.0219258 -0.0204758 0.0764472 -0.0236742 -0.0184264 0.0807447 
-0.0289101 0.0080129 0.0603473 -0.0273778 0.0122661 0.0629592 -0.0274414 0.0121231 0.057902 
-0.0222928 -0.0200756 0.0379821 -0.0222976 -0.0200703 0.0330255 -0.019202 -0.0230496 0.0354975 
-0.0236742 0.0184264 0.0807447 -0.0220614 0.0203296 0.0764816 -0.025094 0.0164405 0.0764591 
-0.0222847 -0.0200847 0.0478978 -0.0249214 -0.016701 0.0503826 -0.0249246 -0.0166962 0.0454233 
-0.0224533 0.019896 0.0680534 -0.0251556 0.0163461 0.0691259 -0.0236742 0.0184264 0.0724112 
-0.0161629 -0.0252737 0.0724763 -0.0120513 -0.027473 0.0738146 -0.0142784 -0.0263842 0.076455 
-0.0299917 -0.000706058 0.0699051 -0.0299995 -0.000164879 0.0737676 -0.0297941 0.00350863 0.0726915 
-0.0297674 0.00372845 0.0628063 -0.0297625 0.00376752 0.0578537 -0.0299949 -0.000552234 0.0603197 
-0.000473653 0.0299963 0.0579312 0.00380237 0.0297581 0.0604166 0.00388685 0.0297471 0.0554478 
-0.00782402 -0.0289618 0.0577946 -0.00782288 -0.0289621 0.0627328 -0.0118785 -0.0275482 0.0602732 
-0.0227521 0.0195535 0.0628037 -0.0252092 0.0162634 0.0651565 -0.0224533 0.019896 0.0680534 
-0.0297625 0.00376752 0.0578537 -0.0299953 -0.000532277 0.0553667 -0.0299949 -0.000552234 0.0603197 
-0.024918 -0.0167061 0.055343 -0.0222802 -0.0200897 0.0528599 -0.0222791 -0.0200908 0.057815 
-0.0219258 -0.0204758 0.0764472 -0.0198556 -0.022489 0.0734897 -0.0183217 -0.0237553 0.0764761 
-0.0191692 -0.0230769 0.0702045 -0.0198556 -0.022489 0.0734897 -0.0223143 -0.0200517 0.0721179 
-0.000571711 0.0299946 0.0721766 0.002524 0.0298936 0.0737238 0.00386038 0.0297506 0.0703239 
-0.0222885 -0.0200804 0.0429389 -0.0222847 -0.0200847 0.0478978 -0.0249246 -0.0166962 0.0454233 
-0.0184461 0.0236589 0.0764905 -0.0203773 0.0220174 0.0724501 -0.0220614 0.0203296 0.0764816 
0.0142784 0.0263842 0.0769158 0.0122932 0.0273656 0.0738343 0.00974098 0.0283745 0.076455 
-0.025094 0.0164405 0.0764591 -0.0261034 0.0147856 0.0722515 -0.0273396 0.0123509 0.0764685 
0.0295908 0.00493784 0.0807447 0.0297817 0.00361278 0.0771111 0.0289012 0.00804489 0.0764914 
-0.0298975 0.00247738 0.0770165 -0.0299995 -0.000164879 0.0737676 -0.0298387 -0.00310698 0.0764926 
-0.0254397 0.0159004 0.0553989 -0.0254683 0.0158546 0.0504375 -0.0274681 0.0120624 0.0529219 
0.0220504 -0.0203416 0.0764845 0.0202524 -0.0221324 0.0737227 0.0229611 -0.0193077 0.07235 
-0.0252092 0.0162634 0.0651565 -0.0251556 0.0163461 0.0691259 -0.0224533 0.019896 0.0680534 
0.03 -7.34788e-18 0.0757447 0.0297846 -0.00358885 0.0771349 0.029745 -0.00390313 0.0731016 
-0.0222802 -0.0200897 0.0528599 -0.019186 -0.0230629 0.0503745 -0.0191827 -0.0230656 0.0553335 
-0.00464491 0.0296382 0.035592 -0.00882299 0.0286732 0.0331082 -0.00883376 0.0286699 0.038067 
-0.00975576 0.0283694 0.0764667 -0.0130304 0.0270224 0.0725004 -0.0143363 0.0263528 0.07649 
-0.0261034 0.0147856 0.0722515 -0.0278518 0.0111479 0.0726891 -0.0273396 0.0123509 0.0764685 
-0.0228884 0.0193938 0.0578537 -0.0229363 0.0193371 0.0529079 -0.0254397 0.0159004 0.0553989 
-0.00494722 0.0295893 0.0702772 -0.000527162 0.0299954 0.0677673 -0.0050392 0.0295737 0.0654201 
-0.0270769 -0.0129166 0.0722029 -0.0283743 -0.00974148 0.0737841 -0.0285673 -0.00916029 0.0698176 
0.000683285 -0.0299922 0.047872 -0.00360797 -0.0297823 0.0503544 -0.00361468 -0.0297814 0.0453942 
0.0297081 0.00417465 0.0729931 0.0297817 0.00361278 0.0771111 0.03 -7.34788e-18 0.0757447 
-0.0270444 -0.0129846 0.0578224 -0.0286202 -0.00899352 0.0553508 -0.0270481 -0.012977 0.0528684 
0.0131386 -0.02697 0.045374 0.0131407 -0.0269689 0.0503432 0.00914643 -0.0285717 0.0478654 
-0.0297628 0.00376507 0.0429752 -0.0297633 0.00376116 0.0479322 -0.0289217 0.00797077 0.0454605 
0.0288848 -0.00810373 0.0405327 0.0297246 -0.00405578 0.0429538 0.0288978 -0.00805702 0.0454039 
-0.0236742 0.0184264 0.0724112 -0.0251556 0.0163461 0.0691259 -0.0261034 0.0147856 0.0722515 
-0.00585665 -0.0294228 0.076508 -0.00297491 -0.0298521 0.0735651 -0.000261222 -0.0299989 0.0769404 
0.0171917 -0.0245855 0.072937 0.0202524 -0.0221324 0.0737227 0.0184264 -0.0236742 0.076455 
0.0287337 0.00862422 0.0455452 0.029667 0.00445746 0.0481332 0.0296753 0.00440175 0.0432 
-0.0118906 -0.027543 0.0454041 -0.00782986 -0.0289602 0.0478787 -0.0118843 -0.0275457 0.0503637 
0.0236742 0.0184264 0.0807447 0.0220717 0.0203184 0.0775085 0.0203184 0.0220717 0.0807447 
-0.0050392 0.0295737 0.0654201 -0.000527162 0.0299954 0.0677673 -0.000569289 0.0299946 0.0629075 
-0.0166893 0.0249292 0.0724205 -0.0135939 0.0267433 0.0689184 -0.0166761 0.0249381 0.067537 
0.0297263 -0.00404294 0.0381444 0.0297246 -0.00405578 0.0429538 0.0288848 -0.00810373 0.0405327 
-0.00974098 -0.0283745 0.076455 -0.0120513 -0.027473 0.0738146 -0.00760666 -0.0290196 0.0724394 
-0.0229363 0.0193371 0.0529079 -0.0254683 0.0158546 0.0504375 -0.0254397 0.0159004 0.0553989 
-0.0296101 -0.00482114 0.0578357 -0.0286202 -0.00899352 0.0553508 -0.0286083 -0.00903123 0.060297 
-0.0297941 0.00350863 0.0726915 -0.0298975 0.00247738 0.0770165 -0.0289239 0.00796289 0.0764459 
0.00914121 -0.0285734 0.0428966 0.00914643 -0.0285717 0.0478654 0.00496282 -0.0295867 0.0453866 
-0.000473653 0.0299963 0.0579312 0.00388685 0.0297471 0.0554478 -0.000397187 0.0299974 0.0529596 
0.0222925 0.0200759 0.0680653 0.0250269 0.0165425 0.0706045 0.0250431 0.0165179 0.0655103 
-0.0299925 -0.000672162 0.0651809 -0.0299917 -0.000706058 0.0699051 -0.0297967 0.003487 0.0677074 
-0.011967 -0.0275098 0.0699508 -0.0120513 -0.027473 0.0738146 -0.0161629 -0.0252737 0.0724763 
-0.00975576 0.0283694 0.0764667 -0.00878928 0.0286836 0.0725544 -0.0130304 0.0270224 0.0725004 
-0.0184461 0.0236589 0.0764905 -0.0166893 0.0249292 0.0724205 -0.0203773 0.0220174 0.0724501 
-0.0129293 0.0270709 0.0553993 -0.0128847 0.0270922 0.0504526 -0.0166091 0.0249828 0.0529195 
0.00974098 0.0283745 0.076455 0.0122932 0.0273656 0.0738343 0.00753375 0.0290386 0.072772 
0.0229611 -0.0193077 0.07235 0.0202524 -0.0221324 0.0737227 0.0202787 -0.0221082 0.0697553 
0.00736456 0.029082 0.0807447 0.00499562 0.0295811 0.076487 0.00247738 0.0298975 0.0807447 
0.00247738 0.0298975 0.0807447 0.00499562 0.0295811 0.076487 4.08595e-05 0.03 0.0764834 
-0.0222928 -0.0200756 0.0379821 -0.0249314 -0.0166861 0.03551 -0.0222976 -0.0200703 0.0330255 
-0.0130304 0.0270224 0.0725004 -0.0135939 0.0267433 0.0689184 -0.0166893 0.0249292 0.0724205 
0.0202787 -0.0221082 0.0697553 0.0202524 -0.0221324 0.0737227 0.0171917 -0.0245855 0.072937 
0.0283745 0.00974098 0.0807447 0.0274732 0.0120509 0.0771825 0.0263842 0.0142784 0.0807447 
-0.0297674 0.00372845 0.0628063 -0.0289101 0.0080129 0.0603473 -0.0297625 0.00376752 0.0578537 
-0.0253617 0.0160245 0.0603479 -0.0252092 0.0162634 0.0651565 -0.0227521 0.0195535 0.0628037 
-0.0183217 -0.0237553 0.0764761 -0.0161629 -0.0252737 0.0724763 -0.0142784 -0.0263842 0.076455 
-0.0118812 -0.027547 0.0553221 -0.00782402 -0.0289618 0.0577946 -0.0118785 -0.0275482 0.0602732 
0.000670816 -0.0299925 0.0379411 0.00494989 -0.0295888 0.0354513 0.0049563 -0.0295878 0.0404187 
0.00799583 0.0289148 0.0628742 0.0119491 0.0275176 0.0652687 0.0120857 0.0274579 0.0603925 
0.0126602 -0.0271978 0.0750473 0.00891898 -0.0286435 0.0769277 0.00909105 -0.0285894 0.0726233 
0.03 -7.34788e-18 0.0707447 0.0297081 0.00417465 0.0729931 0.03 -7.34788e-18 0.0757447 
-0.0166091 0.0249828 0.0529195 -0.0199754 0.0223826 0.0504364 -0.0199619 0.0223947 0.0553707 
0.00386038 0.0297506 0.0703239 0.00795195 0.0289269 0.0677618 0.00376878 0.0297623 0.0653493 
-0.00494722 0.0295893 0.0702772 -0.000571711 0.0299946 0.0721766 -0.000527162 0.0299954 0.0677673 
0.00807342 0.0288932 0.0579358 0.00809815 0.0288863 0.0529716 0.00388685 0.0297471 0.0554478 
-0.0035739 -0.0297864 0.0698129 -0.00297491 -0.0298521 0.0735651 -0.00760666 -0.0290196 0.0724394 
0.0184264 -0.0236742 0.076455 0.0155927 -0.0256294 0.0773263 0.0171917 -0.0245855 0.072937 
-0.0286083 -0.00903123 0.060297 -0.0286202 -0.00899352 0.0553508 -0.0270444 -0.0129846 0.0578224 
-0.00760666 -0.0290196 0.0724394 -0.0120513 -0.027473 0.0738146 -0.011967 -0.0275098 0.0699508 
-0.0228884 0.0193938 0.0578537 -0.0199619 0.0223947 0.0553707 -0.0229363 0.0193371 0.0529079 
-0.0222811 -0.0200886 0.0676041 -0.0223143 -0.0200517 0.0721179 -0.0249343 -0.0166817 0.0702237 
0.0263842 -0.0142784 0.0807447 0.0274732 -0.0120509 0.0771136 0.0283745 -0.00974098 0.0807447 
0.0288918 -0.00807861 0.0654427 0.0289065 -0.00802601 0.0706125 0.0274802 -0.0120349 0.0678973 
-0.0295761 -0.00502534 0.0727535 -0.0283743 -0.00974148 0.0737841 -0.029082 -0.00736456 0.076455 
-0.00883376 0.0286699 0.038067 -0.00882299 0.0286732 0.0331082 -0.0128338 0.0271163 0.0355818 
0.0288935 -0.00807246 0.0603233 0.0288918 -0.00807861 0.0654427 0.0275099 -0.0119669 0.0628132 
0.00380237 0.0297581 0.0604166 0.00799583 0.0289148 0.0628742 0.00807342 0.0288932 0.0579358 
0.0193237 0.0229476 0.0604448 0.0223889 0.0199684 0.0629776 0.022453 0.0198963 0.0579719 
0.015983 0.0253879 0.033137 0.0159713 0.0253952 0.0381028 0.0194517 0.0228393 0.0356187 
0.000685382 -0.0299922 0.0627477 0.00496394 -0.0295865 0.0652367 0.000690357 -0.0299921 0.0677075 
-0.0118975 -0.0275399 0.0404434 -0.0118906 -0.027543 0.0454041 -0.0157056 -0.0255604 0.0429292 
-0.00360826 -0.0297822 0.0602603 0.000685382 -0.0299922 0.0627477 -0.00361194 -0.0297818 0.0651612 
0.0194517 0.0228393 0.0356187 0.0225134 0.0198279 0.0380937 0.0225299 0.0198092 0.0331391 
0.0168413 -0.0248268 0.0478572 0.0168646 -0.024811 0.0528279 0.0131407 -0.0269689 0.0503432 
0.0275099 -0.0119669 0.0628132 0.0288918 -0.00807861 0.0654427 0.0274802 -0.0120349 0.0678973 
0.0274802 -0.0120349 0.0678973 0.0289065 -0.00802601 0.0706125 0.0274476 -0.012109 0.073016 
0.0275478 -0.0118794 0.057811 0.0288935 -0.00807246 0.0603233 0.0275099 -0.0119669 0.0628132 
-0.0289287 0.00794543 0.0652884 -0.0289101 0.0080129 0.0603473 -0.0297674 0.00372845 0.0628063 
-0.0118975 -0.0275399 0.0404434 -0.0119034 -0.0275374 0.0354826 -0.00784369 -0.0289565 0.0379548 
-0.00782986 -0.0289602 0.0478787 -0.00782531 -0.0289614 0.0528378 -0.0118843 -0.0275457 0.0503637 
-0.00362106 -0.0297807 0.0404304 -0.00361468 -0.0297814 0.0453942 -0.00783728 -0.0289582 0.0429177 
0.0288848 -0.0081035 0.0553218 0.0288935 -0.00807246 0.0603233 0.0275478 -0.0118794 0.057811 
-0.0199619 0.0223947 0.0553707 -0.0199754 0.0223826 0.0504364 -0.0229363 0.0193371 0.0529079 
0.0251048 0.016424 0.0455326 0.0251119 0.0164132 0.0405628 0.0224993 0.0198439 0.0430479 
-0.00782402 -0.0289618 0.0577946 -0.00360826 -0.0297822 0.0602603 -0.00782288 -0.0289621 0.0627328 
0.0275408 -0.0118956 0.0528134 0.0288848 -0.0081035 0.0553218 0.0275478 -0.0118794 0.057811 
0.0288929 -0.00807454 0.0503395 0.0288848 -0.0081035 0.0553218 0.0275408 -0.0118956 0.0528134 
-0.0295842 -0.00497768 0.0677019 -0.0295761 -0.00502534 0.0727535 -0.0299917 -0.000706058 0.0699051 
0.0049563 -0.0295878 0.0404187 0.00496282 -0.0295867 0.0453866 0.000676864 -0.0299924 0.0429077 
-0.00362106 -0.0297807 0.0404304 0.000670816 -0.0299925 0.0379411 0.000676864 -0.0299924 0.0429077 
-0.0285673 -0.00916029 0.0698176 -0.0283743 -0.00974148 0.0737841 -0.0295761 -0.00502534 0.0727535 
0.0120509 0.0274732 0.0807447 0.00974098 0.0283745 0.076455 0.00736456 0.029082 0.0807447 
-0.0297625 0.00376772 0.0528941 -0.02891 0.00801312 0.0553904 -0.0289216 0.0079713 0.0504188 
0.0275499 -0.0118745 0.0477924 0.0288929 -0.00807454 0.0503395 0.0275408 -0.0118956 0.0528134 
-0.0118843 -0.0275457 0.0503637 -0.00782531 -0.0289614 0.0528378 -0.0118812 -0.027547 0.0553221 
-0.0128847 0.0270922 0.0504526 -0.00886422 0.0286605 0.0479881 -0.0128532 0.0271071 0.0455004 
-0.0222928 -0.0200756 0.0379821 -0.0191967 -0.023054 0.0404547 -0.0222885 -0.0200804 0.0429389 
0.0275166 -0.0119515 0.0429217 0.0288848 -0.00810373 0.0405327 0.0288978 -0.00805702 0.0454039 
-0.0157115 -0.0255567 0.03797 -0.0157056 -0.0255604 0.0429292 -0.0191967 -0.023054 0.0404547 
-0.0118975 -0.0275399 0.0404434 -0.00784369 -0.0289565 0.0379548 -0.00783728 -0.0289582 0.0429177 
0.00916909 -0.0285644 0.0627492 0.0131937 -0.026943 0.0652307 0.00914953 -0.0285707 0.0677033 
-0.0222928 -0.0200756 0.0379821 -0.019202 -0.0230496 0.0354975 -0.0191967 -0.023054 0.0404547 
-0.0229363 0.0193371 0.0529079 -0.0229573 0.0193123 0.0479548 -0.0254683 0.0158546 0.0504375 
0.00753375 0.0290386 0.072772 0.002524 0.0298936 0.0737238 0.00499562 0.0295811 0.076487 
0.00914121 -0.0285734 0.0428966 0.0131278 -0.0269752 0.0404023 0.0131386 -0.02697 0.045374 
0.0274671 -0.0120648 0.0381045 0.0288848 -0.00810373 0.0405327 0.0275166 -0.0119515 0.0429217 
0.0255601 -0.015706 0.0404357 0.0274671 -0.0120648 0.0381045 0.0275166 -0.0119515 0.0429217 
0.0250985 0.0164336 0.0505118 0.0251048 0.016424 0.0455326 0.02249 0.0198545 0.0480169 
0.0159356 0.0254176 0.0529813 0.0159489 0.0254093 0.0480178 0.0121479 0.0274304 0.0504951 
-0.0166761 0.0249381 0.067537 -0.0196574 0.0226625 0.068692 -0.0166893 0.0249292 0.0724205 
-0.000397187 0.0299974 0.0529596 0.00389662 0.0297459 0.0504864 -0.000384935 0.0299975 0.0479997 
-0.00247738 -0.0298975 0.0807447 -0.000261222 -0.0299989 0.0769404 0.00247738 -0.0298975 0.0807447 
-0.0199754 0.0223826 0.0504364 -0.0229573 0.0193123 0.0479548 -0.0229363 0.0193371 0.0529079 
-0.00886422 0.0286605 0.0479881 -0.00892097 0.0286429 0.0529482 -0.00467171 0.029634 0.0504735 
-0.0249343 -0.0166817 0.0702237 -0.0270769 -0.0129166 0.0722029 -0.0270191 -0.0130372 0.0676113 
0.00494989 -0.0295888 0.0354513 0.00913312 -0.028576 0.0379279 0.0049563 -0.0295878 0.0404187 
0.00753375 0.0290386 0.072772 0.0122932 0.0273656 0.0738343 0.0118367 0.0275662 0.069944 
0.0121797 0.0274163 0.0356143 0.0159713 0.0253952 0.0381028 0.015983 0.0253879 0.033137 
-0.0222885 -0.0200804 0.0429389 -0.019191 -0.0230587 0.0454132 -0.0222847 -0.0200847 0.0478978 
-0.00361468 -0.0297814 0.0453942 -0.00782986 -0.0289602 0.0478787 -0.00783728 -0.0289582 0.0429177 
0.00380237 0.0297581 0.0604166 0.00807342 0.0288932 0.0579358 0.00388685 0.0297471 0.0554478 
0.0158933 0.0254441 0.0579403 0.0193237 0.0229476 0.0604448 0.0193961 0.0228865 0.0554724 
0.0297181 -0.0041029 0.0531588 0.0288929 -0.00807454 0.0503395 0.029721 -0.00408211 0.0482208 
0.00391625 0.0297433 0.0405651 0.00390766 0.0297444 0.0455257 0.00812153 0.0288798 0.0430497 
-0.0157115 -0.0255567 0.03797 -0.0119034 -0.0275374 0.0354826 -0.0118975 -0.0275399 0.0404434 
-0.0118812 -0.027547 0.0553221 -0.00782531 -0.0289614 0.0528378 -0.00782402 -0.0289618 0.0577946 
0.00974098 0.0283745 0.076455 0.00499562 0.0295811 0.076487 0.00736456 0.029082 0.0807447 
0.028733 0.0086264 0.0505537 0.029667 0.00445746 0.0481332 0.0287337 0.00862422 0.0455452 
-0.0295908 0.00493784 0.0807447 -0.0298975 0.00247738 0.0770165 -0.03 -6.29394e-17 0.0807447 
-0.00362106 -0.0297807 0.0404304 0.000676864 -0.0299924 0.0429077 -0.00361468 -0.0297814 0.0453942 
0.03 -7.34788e-18 0.0407447 0.0297246 -0.00405578 0.0429538 0.0297263 -0.00404294 0.0381444 
-0.00782402 -0.0289618 0.0577946 -0.00360589 -0.0297825 0.0553114 -0.00360826 -0.0297822 0.0602603 
-0.0157166 -0.0255536 0.0330104 -0.0119034 -0.0275374 0.0354826 -0.0157115 -0.0255567 0.03797 
0.0121708 0.0274203 0.0405769 0.0159713 0.0253952 0.0381028 0.0121797 0.0274163 0.0356143 
0.00736456 -0.029082 0.0807447 0.00891898 -0.0286435 0.0769277 0.0120509 -0.0274732 0.0807447 
-0.00760666 -0.0290196 0.0724394 -0.00297491 -0.0298521 0.0735651 -0.00585665 -0.0294228 0.076508 
0.0049563 -0.0295878 0.0404187 0.00914121 -0.0285734 0.0428966 0.00496282 -0.0295867 0.0453866 
0.00386038 0.0297506 0.0703239 0.00753375 0.0290386 0.072772 0.00795195 0.0289269 0.0677618 
0.000670816 -0.0299925 0.0379411 0.0049563 -0.0295878 0.0404187 0.000676864 -0.0299924 0.0429077 
-0.00784369 -0.0289565 0.0379548 -0.00362106 -0.0297807 0.0404304 -0.00783728 -0.0289582 0.0429177 
-0.000375922 0.0299976 0.043039 0.00390766 0.0297444 0.0455257 0.00391625 0.0297433 0.0405651 
-0.0157115 -0.0255567 0.03797 -0.0118975 -0.0275399 0.0404434 -0.0157056 -0.0255604 0.0429292 
0.0171917 -0.0245855 0.072937 0.0155927 -0.0256294 0.0773263 0.0126602 -0.0271978 0.0750473 
-0.019202 -0.0230496 0.0354975 -0.0157166 -0.0255536 0.0330104 -0.0157115 -0.0255567 0.03797 
0.00914121 -0.0285734 0.0428966 0.0131386 -0.02697 0.045374 0.00914643 -0.0285717 0.0478654 
0.00799583 0.0289148 0.0628742 0.0120857 0.0274579 0.0603925 0.00807342 0.0288932 0.0579358 
0.0120857 0.0274579 0.0603925 0.012136 0.0274357 0.0554568 0.00807342 0.0288932 0.0579358 
0.0283745 -0.00974098 0.0807447 0.0274732 -0.0120509 0.0771136 0.0289189 -0.00798104 0.0767628 
0.0131937 -0.026943 0.0652307 0.0169668 -0.0247412 0.0677053 0.0131642 -0.0269575 0.0701849 
0.00474583 -0.0296222 0.0764677 0.00891898 -0.0286435 0.0769277 0.00736456 -0.029082 0.0807447 
-0.0118975 -0.0275399 0.0404434 -0.00783728 -0.0289582 0.0429177 -0.0118906 -0.027543 0.0454041 
-0.0103706 0.0281505 0.0685061 -0.00878928 0.0286836 0.0725544 -0.00494722 0.0295893 0.0702772 
0.00497803 -0.0295841 0.0602685 0.00916909 -0.0285644 0.0627492 0.00496394 -0.0295865 0.0652367 
0.00388685 0.0297471 0.0554478 0.00389662 0.0297459 0.0504864 -0.000397187 0.0299974 0.0529596 
0.000685382 -0.0299922 0.0627477 0.00497803 -0.0295841 0.0602685 0.00496394 -0.0295865 0.0652367 
0.0164084 0.025115 0.0807447 0.0142784 0.0263842 0.0769158 0.0120509 0.0274732 0.0807447 
-0.0157193 -0.025552 0.0676573 -0.0161629 -0.0252737 0.0724763 -0.0191692 -0.0230769 0.0702045 
0.025602 -0.0156377 0.045373 0.0256063 -0.0156306 0.05033 0.0231554 -0.0190743 0.0478544 
-0.019202 -0.0230496 0.0354975 -0.0157115 -0.0255567 0.03797 -0.0191967 -0.023054 0.0404547 
0.023124 -0.0191124 0.0428959 0.0231554 -0.0190743 0.0478544 0.0202026 -0.0221778 0.0453726 
0.0203184 0.0220717 0.0807447 0.0184264 0.0236742 0.076455 0.0164084 0.025115 0.0807447 
0.0295908 -0.00493784 0.0807447 0.0297846 -0.00358885 0.0771349 0.03 -7.34788e-18 0.0807447 
-0.00783728 -0.0289582 0.0429177 -0.00782986 -0.0289602 0.0478787 -0.0118906 -0.027543 0.0454041 
0.0049563 -0.0295878 0.0404187 0.00913312 -0.028576 0.0379279 0.00914121 -0.0285734 0.0428966 
0.0222925 0.0200759 0.0680653 0.0250431 0.0165179 0.0655103 0.0223889 0.0199684 0.0629776 
-0.0128532 0.0271071 0.0455004 -0.00886422 0.0286605 0.0479881 -0.00884205 0.0286674 0.043027 
0.0271795 0.0126993 0.0679265 0.0287447 0.00858747 0.0655949 0.0271824 0.0126932 0.0629567 
0.0255067 -0.0157926 0.0703743 0.0229611 -0.0193077 0.07235 0.0231296 -0.0191056 0.0676972 
0.0201813 -0.0221972 0.0403989 0.0230922 -0.0191507 0.037937 0.023124 -0.0191124 0.0428959 
-0.0289287 0.00794543 0.0652884 -0.0273778 0.0122661 0.0629592 -0.0289101 0.0080129 0.0603473 
0.03 -7.34788e-18 0.0807447 0.0297846 -0.00358885 0.0771349 0.03 -7.34788e-18 0.0757447 
0.0202331 -0.02215 0.0553353 0.016887 -0.0247957 0.0577874 0.0168646 -0.024811 0.0528279 
0.0168416 -0.0248266 0.0428825 0.0201813 -0.0221972 0.0403989 0.0202026 -0.0221778 0.0453726 
0.0230725 -0.0191745 0.0329251 0.0255076 -0.0157913 0.0354662 0.0230922 -0.0191507 0.037937 
0.0255794 -0.0156746 0.0652785 0.0274802 -0.0120349 0.0678973 0.0255067 -0.0157926 0.0703743 
0.0131386 -0.02697 0.045374 0.0168413 -0.0248268 0.0478572 0.0131407 -0.0269689 0.0503432 
0.029721 -0.00408211 0.0482208 0.0288929 -0.00807454 0.0503395 0.0288978 -0.00805702 0.0454039 
0.0131694 -0.0269549 0.0602647 0.0169091 -0.0247807 0.0627364 0.0131937 -0.026943 0.0652307 
0.00389662 0.0297459 0.0504864 0.00390766 0.0297444 0.0455257 -0.000384935 0.0299975 0.0479997 
-0.0166893 0.0249292 0.0724205 -0.0196574 0.0226625 0.068692 -0.0203773 0.0220174 0.0724501 
0.0202787 -0.0221082 0.0697553 0.0171917 -0.0245855 0.072937 0.0169668 -0.0247412 0.0677053 
0.0250886 0.0164488 0.0554884 0.0271813 0.0126955 0.0580093 0.0271931 0.0126703 0.0530117 
0.025602 -0.0156377 0.045373 0.0275166 -0.0119515 0.0429217 0.0275499 -0.0118745 0.0477924 
0.03 -7.34788e-18 0.0807447 0.0297817 0.00361278 0.0771111 0.0295908 0.00493784 0.0807447 
0.03 -7.34788e-18 0.0757447 0.0297817 0.00361278 0.0771111 0.03 -7.34788e-18 0.0807447 
0.0256275 -0.0155959 0.0553256 0.0275478 -0.0118794 0.057811 0.0256067 -0.01563 0.0602853 
-0.0224533 0.019896 0.0680534 -0.0196574 0.0226625 0.068692 -0.0197996 0.0225383 0.0649075 
0.00916909 -0.0285644 0.0627492 0.0131694 -0.0269549 0.0602647 0.0131937 -0.026943 0.0652307 
-0.0157056 -0.0255604 0.0429292 -0.019191 -0.0230587 0.0454132 -0.0191967 -0.023054 0.0404547 
-0.00467171 0.029634 0.0504735 -0.00892097 0.0286429 0.0529482 -0.00476148 0.0296197 0.0554463 
-0.0132343 0.0269231 0.0651557 -0.0135939 0.0267433 0.0689184 -0.0103706 0.0281505 0.0685061 
0.0119491 0.0275176 0.0652687 0.0158025 0.0255006 0.0628626 0.0120857 0.0274579 0.0603925 
0.0120509 -0.0274732 0.0807447 0.0155927 -0.0256294 0.0773263 0.0164084 -0.025115 0.0807447 
0.0164084 -0.025115 0.0807447 0.0184264 -0.0236742 0.076455 0.0203184 -0.0220717 0.0807447 
-0.00782402 -0.0289618 0.0577946 -0.00782531 -0.0289614 0.0528378 -0.00360589 -0.0297825 0.0553114 
0.00912428 -0.0285788 0.0329606 0.00913312 -0.028576 0.0379279 0.00494989 -0.0295888 0.0354513 
0.00795195 0.0289269 0.0677618 0.00753375 0.0290386 0.072772 0.0118367 0.0275662 0.069944 
-0.00360826 -0.0297822 0.0602603 0.000687804 -0.0299921 0.0577887 0.000685382 -0.0299922 0.0627477 
0.0131386 -0.02697 0.045374 0.0168416 -0.0248266 0.0428825 0.0168413 -0.0248268 0.0478572 
0.00812989 0.0288774 0.0380895 0.00812153 0.0288798 0.0430497 0.0121708 0.0274203 0.0405769 
-0.0191967 -0.023054 0.0404547 -0.019191 -0.0230587 0.0454132 -0.0222885 -0.0200804 0.0429389 
0.0158933 0.0254441 0.0579403 0.0159356 0.0254176 0.0529813 0.012136 0.0274357 0.0554568 
-0.0271371 0.0127897 0.0684482 -0.0251556 0.0163461 0.0691259 -0.0252092 0.0162634 0.0651565 
0.0272641 0.0125168 0.072984 0.0288042 0.00838565 0.0705774 0.0271795 0.0126993 0.0679265 
0.023124 -0.0191124 0.0428959 0.025602 -0.0156377 0.045373 0.0231554 -0.0190743 0.0478544 
0.0120857 0.0274579 0.0603925 0.0158933 0.0254441 0.0579403 0.012136 0.0274357 0.0554568 
0.0168416 -0.0248266 0.0428825 0.0202026 -0.0221778 0.0453726 0.0168413 -0.0248268 0.0478572 
0.0201813 -0.0221972 0.0403989 0.023124 -0.0191124 0.0428959 0.0202026 -0.0221778 0.0453726 
0.0193237 0.0229476 0.0604448 0.022453 0.0198963 0.0579719 0.0193961 0.0228865 0.0554724 
-0.00360589 -0.0297825 0.0553114 0.000687804 -0.0299921 0.0577887 -0.00360826 -0.0297822 0.0602603 
-0.0273396 0.0123509 0.0764685 -0.0278518 0.0111479 0.0726891 -0.0289239 0.00796289 0.0764459 
0.025602 -0.0156377 0.045373 0.0275499 -0.0118745 0.0477924 0.0256063 -0.0156306 0.05033 
-0.0298387 -0.00310698 0.0764926 -0.0299995 -0.000164879 0.0737676 -0.0295761 -0.00502534 0.0727535 
0.0224993 0.0198439 0.0430479 0.019435 0.0228534 0.0405756 0.019423 0.0228637 0.0455329 
0.0272021 0.0126509 0.0430471 0.0272085 0.0126372 0.0380774 0.0251119 0.0164132 0.0405628 
0.000685382 -0.0299922 0.0627477 0.000687804 -0.0299921 0.0577887 0.00497803 -0.0295841 0.0602685 
0.0287431 0.00859267 0.0356151 0.0272251 0.0126013 0.033131 0.0272085 0.0126372 0.0380774 
0.022453 0.0198963 0.0579719 0.0224771 0.019869 0.0529932 0.0193961 0.0228865 0.0554724 
0.0256067 -0.01563 0.0602853 0.0275099 -0.0119669 0.0628132 0.0255794 -0.0156746 0.0652785 
0.0203184 -0.0220717 0.0807447 0.0220504 -0.0203416 0.0764845 0.0236742 -0.0184264 0.0807447 
0.0223889 0.0199684 0.0629776 0.0250683 0.0164797 0.060499 0.022453 0.0198963 0.0579719 
-0.000384935 0.0299975 0.0479997 0.00390766 0.0297444 0.0455257 -0.000375922 0.0299976 0.043039 
0.0251119 0.0164132 0.0405628 0.0225134 0.0198279 0.0380937 0.0224993 0.0198439 0.0430479 
0.0287363 0.00861529 0.0405651 0.0287431 0.00859267 0.0356151 0.0272085 0.0126372 0.0380774 
0.0250269 0.0165425 0.0706045 0.0271795 0.0126993 0.0679265 0.0250431 0.0165179 0.0655103 
0.0275166 -0.0119515 0.0429217 0.0288978 -0.00805702 0.0454039 0.0275499 -0.0118745 0.0477924 
-0.00782986 -0.0289602 0.0478787 -0.00360797 -0.0297823 0.0503544 -0.00782531 -0.0289614 0.0528378 
-0.0271371 0.0127897 0.0684482 -0.0273778 0.0122661 0.0629592 -0.0289287 0.00794543 0.0652884 
0.0158933 0.0254441 0.0579403 0.0158025 0.0255006 0.0628626 0.0193237 0.0229476 0.0604448 
0.0250886 0.0164488 0.0554884 0.0250985 0.0164336 0.0505118 0.0224771 0.019869 0.0529932 
0.0296735 0.00441397 0.0530219 0.029667 0.00445746 0.0481332 0.028733 0.0086264 0.0505537 
0.00914992 -0.0285706 0.0528296 0.0131502 -0.0269643 0.0553048 0.00916363 -0.0285662 0.0577899 
0.0297181 -0.0041029 0.0531588 0.0288848 -0.0081035 0.0553218 0.0288929 -0.00807454 0.0503395 
0.0230922 -0.0191507 0.037937 0.0255601 -0.015706 0.0404357 0.023124 -0.0191124 0.0428959 
0.025115 0.0164084 0.076455 0.0220717 0.0203184 0.0775085 0.0236742 0.0184264 0.0807447 
0.0203184 0.0220717 0.0807447 0.0220717 0.0203184 0.0775085 0.0184264 0.0236742 0.076455 
0.0169668 -0.0247412 0.0677053 0.0171917 -0.0245855 0.072937 0.0131642 -0.0269575 0.0701849 
0.023124 -0.0191124 0.0428959 0.0255601 -0.015706 0.0404357 0.025602 -0.0156377 0.045373 
0.03 -7.34788e-18 0.0457447 0.0297246 -0.00405578 0.0429538 0.03 -7.34788e-18 0.0407447 
0.028725 0.00865285 0.0555475 0.028733 0.0086264 0.0505537 0.0271931 0.0126703 0.0530117 
0.0251048 0.016424 0.0455326 0.0272021 0.0126509 0.0430471 0.0251119 0.0164132 0.0405628 
0.00496861 -0.0295857 0.0503518 0.00497511 -0.0295846 0.0553111 0.000688203 -0.0299921 0.0528319 
-0.00782531 -0.0289614 0.0528378 -0.00360797 -0.0297823 0.0503544 -0.00360589 -0.0297825 0.0553114 
0.0168315 -0.0248334 0.0379043 0.0168089 -0.0248488 0.0329371 0.0201701 -0.0222073 0.0354077 
0.0297211 -0.00408097 0.0631184 0.0288918 -0.00807861 0.0654427 0.0288935 -0.00807246 0.0603233 
0.0297208 -0.00408319 0.0581108 0.0288935 -0.00807246 0.0603233 0.0288848 -0.0081035 0.0553218 
-0.0035739 -0.0297864 0.0698129 -0.00760666 -0.0290196 0.0724394 -0.00781413 -0.0289644 0.0676151 
0.025602 -0.0156377 0.045373 0.0255601 -0.015706 0.0404357 0.0275166 -0.0119515 0.0429217 
0.0297208 -0.00408319 0.0581108 0.0288848 -0.0081035 0.0553218 0.0297181 -0.0041029 0.0531588 
0.0297211 -0.00408097 0.0631184 0.0288935 -0.00807246 0.0603233 0.0297208 -0.00408319 0.0581108 
0.0236742 -0.0184264 0.0807447 0.025115 -0.0164084 0.076455 0.0263842 -0.0142784 0.0807447 
0.0297315 -0.00400457 0.0681184 0.0289065 -0.00802601 0.0706125 0.0288918 -0.00807861 0.0654427 
-0.0290536 0.00747574 0.0702698 -0.0278518 0.0111479 0.0726891 -0.0271371 0.0127897 0.0684482 
0.022453 0.0198963 0.0579719 0.0250886 0.0164488 0.0554884 0.0224771 0.019869 0.0529932 
0.0158933 0.0254441 0.0579403 0.0193961 0.0228865 0.0554724 0.0159356 0.0254176 0.0529813 
0.0271813 0.0126955 0.0580093 0.028725 0.00865285 0.0555475 0.0271931 0.0126703 0.0530117 
-0.00492678 0.0295927 0.076362 -0.00878928 0.0286836 0.0725544 -0.00975576 0.0283694 0.0764667 
0.0250886 0.0164488 0.0554884 0.0250683 0.0164797 0.060499 0.0271813 0.0126955 0.0580093 
0.0169091 -0.0247807 0.0627364 0.0169668 -0.0247412 0.0677053 0.0131937 -0.026943 0.0652307 
0.0297315 -0.00400457 0.0681184 0.0288918 -0.00807861 0.0654427 0.0297211 -0.00408097 0.0631184 
0.0159356 0.0254176 0.0529813 0.0194115 0.0228734 0.0505016 0.0159489 0.0254093 0.0480178 
0.0250886 0.0164488 0.0554884 0.0271931 0.0126703 0.0530117 0.0250985 0.0164336 0.0505118 
0.0168413 -0.0248268 0.0478572 0.0202263 -0.0221562 0.0503429 0.0168646 -0.024811 0.0528279 
0.0256063 -0.0156306 0.05033 0.0275408 -0.0118956 0.0528134 0.0256275 -0.0155959 0.0553256 
0.0297263 -0.00404294 0.0381444 0.0288848 -0.00810373 0.0405327 0.0288784 -0.0081264 0.0356076 
0.00811101 0.0288827 0.0480103 0.00389662 0.0297459 0.0504864 0.00809815 0.0288863 0.0529716 
0.0297181 -0.0041029 0.0531588 0.029721 -0.00408211 0.0482208 0.03 -7.34788e-18 0.0507447 
0.0272021 0.0126509 0.0430471 0.0287363 0.00861529 0.0405651 0.0272085 0.0126372 0.0380774 
0.0275499 -0.0118745 0.0477924 0.0275408 -0.0118956 0.0528134 0.0256063 -0.0156306 0.05033 
0.0263842 0.0142784 0.0807447 0.025115 0.0164084 0.076455 0.0236742 0.0184264 0.0807447 
0.00795195 0.0289269 0.0677618 0.0118367 0.0275662 0.069944 0.0119491 0.0275176 0.0652687 
0.0231554 -0.0190743 0.0478544 0.0202263 -0.0221562 0.0503429 0.0202026 -0.0221778 0.0453726 
0.0250431 0.0165179 0.0655103 0.0250683 0.0164797 0.060499 0.0223889 0.0199684 0.0629776 
0.0287257 0.00865064 0.060689 0.0287447 0.00858747 0.0655949 0.0296673 0.00445554 0.0632537 
0.00914121 -0.0285734 0.0428966 0.00913312 -0.028576 0.0379279 0.0131278 -0.0269752 0.0404023 
0.0255794 -0.0156746 0.0652785 0.0275099 -0.0119669 0.0628132 0.0274802 -0.0120349 0.0678973 
0.0120857 0.0274579 0.0603925 0.0158025 0.0255006 0.0628626 0.0158933 0.0254441 0.0579403 
0.0255076 -0.0157913 0.0354662 0.0255601 -0.015706 0.0404357 0.0230922 -0.0191507 0.037937 
0.0275478 -0.0118794 0.057811 0.0275099 -0.0119669 0.0628132 0.0256067 -0.01563 0.0602853 
0.0250985 0.0164336 0.0505118 0.0271966 0.0126628 0.0480326 0.0251048 0.016424 0.0455326 
0.0256275 -0.0155959 0.0553256 0.0275408 -0.0118956 0.0528134 0.0275478 -0.0118794 0.057811 
0.029745 -0.00390313 0.0731016 0.0289065 -0.00802601 0.0706125 0.0297315 -0.00400457 0.0681184 
0.00809815 0.0288863 0.0529716 0.00389662 0.0297459 0.0504864 0.00388685 0.0297471 0.0554478 
-0.0261034 0.0147856 0.0722515 -0.0251556 0.0163461 0.0691259 -0.0271371 0.0127897 0.0684482 
0.0131278 -0.0269752 0.0404023 0.0131178 -0.0269801 0.0354334 0.0168315 -0.0248334 0.0379043 
0.022453 0.0198963 0.0579719 0.0250683 0.0164797 0.060499 0.0250886 0.0164488 0.0554884 
-0.0103706 0.0281505 0.0685061 -0.0135939 0.0267433 0.0689184 -0.0130304 0.0270224 0.0725004 
0.0295908 0.00493784 0.0807447 0.0289012 0.00804489 0.0764914 0.0283745 0.00974098 0.0807447 
0.0224771 0.019869 0.0529932 0.0194115 0.0228734 0.0505016 0.0193961 0.0228865 0.0554724 
-0.0143363 0.0263528 0.07649 -0.0166893 0.0249292 0.0724205 -0.0184461 0.0236589 0.0764905 
0.0283745 -0.00974098 0.0807447 0.0289189 -0.00798104 0.0767628 0.0295908 -0.00493784 0.0807447 
0.028733 0.0086264 0.0505537 0.0271966 0.0126628 0.0480326 0.0271931 0.0126703 0.0530117 
-0.00361468 -0.0297814 0.0453942 -0.00360797 -0.0297823 0.0503544 -0.00782986 -0.0289602 0.0478787 
0.0121479 0.0274304 0.0504951 0.0121597 0.0274252 0.0455363 0.00811101 0.0288827 0.0480103 
0.0289012 0.00804489 0.0764914 0.0274732 0.0120509 0.0771825 0.0283745 0.00974098 0.0807447 
0.00812153 0.0288798 0.0430497 0.00390766 0.0297444 0.0455257 0.00811101 0.0288827 0.0480103 
0.0263842 0.0142784 0.0807447 0.0274732 0.0120509 0.0771825 0.025115 0.0164084 0.076455 
-0.0298387 -0.00310698 0.0764926 -0.0295761 -0.00502534 0.0727535 -0.029082 -0.00736456 0.076455 
0.0193961 0.0228865 0.0554724 0.0194115 0.0228734 0.0505016 0.0159356 0.0254176 0.0529813 
-0.000527162 0.0299954 0.0677673 -0.000571711 0.0299946 0.0721766 0.00386038 0.0297506 0.0703239 
-0.0295761 -0.00502534 0.0727535 -0.0299995 -0.000164879 0.0737676 -0.0299917 -0.000706058 0.0699051 
0.0184264 -0.0236742 0.076455 0.0220504 -0.0203416 0.0764845 0.0203184 -0.0220717 0.0807447 
0.0271931 0.0126703 0.0530117 0.0271966 0.0126628 0.0480326 0.0250985 0.0164336 0.0505118 
0.00391625 0.0297433 0.0405651 0.00812153 0.0288798 0.0430497 0.00812989 0.0288774 0.0380895 
0.025115 -0.0164084 0.076455 0.0274732 -0.0120509 0.0771136 0.0263842 -0.0142784 0.0807447 
-0.0130304 0.0270224 0.0725004 -0.00878928 0.0286836 0.0725544 -0.0103706 0.0281505 0.0685061 
-0.0191692 -0.0230769 0.0702045 -0.0223143 -0.0200517 0.0721179 -0.0222811 -0.0200886 0.0676041 
0.000683285 -0.0299922 0.047872 0.000688203 -0.0299921 0.0528319 -0.00360797 -0.0297823 0.0503544 
0.0159489 0.0254093 0.0480178 0.0121597 0.0274252 0.0455363 0.0121479 0.0274304 0.0504951 
0.0251048 0.016424 0.0455326 0.0271966 0.0126628 0.0480326 0.0272021 0.0126509 0.0430471 
0.0202026 -0.0221778 0.0453726 0.0202263 -0.0221562 0.0503429 0.0168413 -0.0248268 0.0478572 
0.0296632 0.00448286 0.0681924 0.0297081 0.00417465 0.0729931 0.03 -7.34788e-18 0.0707447 
0.00912428 -0.0285788 0.0329606 0.0131178 -0.0269801 0.0354334 0.00913312 -0.028576 0.0379279 
0.00811101 0.0288827 0.0480103 0.00390766 0.0297444 0.0455257 0.00389662 0.0297459 0.0504864 
-0.0285673 -0.00916029 0.0698176 -0.0295761 -0.00502534 0.0727535 -0.0295842 -0.00497768 0.0677019 
0.0288978 -0.00805702 0.0454039 0.0288929 -0.00807454 0.0503395 0.0275499 -0.0118745 0.0477924 
0.0236742 -0.0184264 0.0807447 0.0220504 -0.0203416 0.0764845 0.025115 -0.0164084 0.076455 
0.0255076 -0.0157913 0.0354662 0.0274671 -0.0120648 0.0381045 0.0255601 -0.015706 0.0404357 
-0.00781413 -0.0289644 0.0676151 -0.00760666 -0.0290196 0.0724394 -0.011967 -0.0275098 0.0699508 
0.0168646 -0.024811 0.0528279 0.0131502 -0.0269643 0.0553048 0.0131407 -0.0269689 0.0503432 
-0.0271371 0.0127897 0.0684482 -0.0278518 0.0111479 0.0726891 -0.0261034 0.0147856 0.0722515 
-0.00360797 -0.0297823 0.0503544 0.000688203 -0.0299921 0.0528319 -0.00360589 -0.0297825 0.0553114 
0.00247738 -0.0298975 0.0807447 -0.000261222 -0.0299989 0.0769404 0.00474583 -0.0296222 0.0764677 
0.0287363 0.00861529 0.0405651 0.0296775 0.00438705 0.0380768 0.0287431 0.00859267 0.0356151 
0.00811101 0.0288827 0.0480103 0.0121597 0.0274252 0.0455363 0.00812153 0.0288798 0.0430497 
0.028725 0.00865285 0.0555475 0.0296735 0.00441397 0.0530219 0.028733 0.0086264 0.0505537 
-0.00585665 -0.0294228 0.076508 -0.000261222 -0.0299989 0.0769404 -0.00247738 -0.0298975 0.0807447 
0.00812153 0.0288798 0.0430497 0.0121597 0.0274252 0.0455363 0.0121708 0.0274203 0.0405769 
0.00916909 -0.0285644 0.0627492 0.00916363 -0.0285662 0.0577899 0.0131694 -0.0269549 0.0602647 
0.0131178 -0.0269801 0.0354334 0.0168089 -0.0248488 0.0329371 0.0168315 -0.0248334 0.0379043 
-0.0161629 -0.0252737 0.0724763 -0.0198556 -0.022489 0.0734897 -0.0191692 -0.0230769 0.0702045 
-0.0220614 0.0203296 0.0764816 -0.0236742 0.0184264 0.0724112 -0.025094 0.0164405 0.0764591 
-0.0270191 -0.0130372 0.0676113 -0.0270769 -0.0129166 0.0722029 -0.0285673 -0.00916029 0.0698176 
-0.00360589 -0.0297825 0.0553114 0.000688203 -0.0299921 0.0528319 0.000687804 -0.0299921 0.0577887 
-0.0289239 0.00796289 0.0764459 -0.0298975 0.00247738 0.0770165 -0.0295908 0.00493784 0.0807447 
0.0119491 0.0275176 0.0652687 0.0118367 0.0275662 0.069944 0.0156247 0.0256099 0.0677537 
0.0271795 0.0126993 0.0679265 0.0271824 0.0126932 0.0629567 0.0250431 0.0165179 0.0655103 
-0.03 -6.29394e-17 0.0807447 -0.0298975 0.00247738 0.0770165 -0.0298387 -0.00310698 0.0764926 
0.00386038 0.0297506 0.0703239 0.002524 0.0298936 0.0737238 0.00753375 0.0290386 0.072772 
0.00913312 -0.028576 0.0379279 0.0131178 -0.0269801 0.0354334 0.0131278 -0.0269752 0.0404023 
0.0250431 0.0165179 0.0655103 0.0271824 0.0126932 0.0629567 0.0250683 0.0164797 0.060499 
0.0272021 0.0126509 0.0430471 0.0287337 0.00862422 0.0455452 0.0287363 0.00861529 0.0405651 
0.0184264 0.0236742 0.076455 0.0142784 0.0263842 0.0769158 0.0164084 0.025115 0.0807447 
0.0131694 -0.0269549 0.0602647 0.016887 -0.0247957 0.0577874 0.0169091 -0.0247807 0.0627364 
0.0120509 0.0274732 0.0807447 0.0142784 0.0263842 0.0769158 0.00974098 0.0283745 0.076455 
0.0296753 0.00440175 0.0432 0.029667 0.00445746 0.0481332 0.03 -7.34788e-18 0.0457447 
0.000687804 -0.0299921 0.0577887 0.00497511 -0.0295846 0.0553111 0.00497803 -0.0295841 0.0602685 
0.0250683 0.0164797 0.060499 0.0271824 0.0126932 0.0629567 0.0271813 0.0126955 0.0580093 
0.000688203 -0.0299921 0.0528319 0.00497511 -0.0295846 0.0553111 0.000687804 -0.0299921 0.0577887 
-0.011967 -0.0275098 0.0699508 -0.0161629 -0.0252737 0.0724763 -0.0157193 -0.025552 0.0676573 
0.0231296 -0.0191056 0.0676972 0.0229611 -0.0193077 0.07235 0.0202787 -0.0221082 0.0697553 
0.00497511 -0.0295846 0.0553111 0.00916363 -0.0285662 0.0577899 0.00497803 -0.0295841 0.0602685 
0.00974098 0.0283745 0.076455 0.00753375 0.0290386 0.072772 0.00499562 0.0295811 0.076487 
0.0159489 0.0254093 0.0480178 0.0159583 0.0254034 0.0430623 0.0121597 0.0274252 0.0455363 
0.00497803 -0.0295841 0.0602685 0.00916363 -0.0285662 0.0577899 0.00916909 -0.0285644 0.0627492 
0.0159713 0.0253952 0.0381028 0.0159583 0.0254034 0.0430623 0.019435 0.0228534 0.0405756 
-0.00974098 -0.0283745 0.076455 -0.00760666 -0.0290196 0.0724394 -0.00585665 -0.0294228 0.076508 
0.0131407 -0.0269689 0.0503432 0.0131502 -0.0269643 0.0553048 0.00914992 -0.0285706 0.0528296 
0.0271966 0.0126628 0.0480326 0.0287337 0.00862422 0.0455452 0.0272021 0.0126509 0.0430471 
0.0121708 0.0274203 0.0405769 0.0159583 0.0254034 0.0430623 0.0159713 0.0253952 0.0381028 
0.028733 0.0086264 0.0505537 0.0287337 0.00862422 0.0455452 0.0271966 0.0126628 0.0480326 
0.0288042 0.00838565 0.0705774 0.0287447 0.00858747 0.0655949 0.0271795 0.0126993 0.0679265 
0.019423 0.0228637 0.0455329 0.0159583 0.0254034 0.0430623 0.0159489 0.0254093 0.0480178 
0.0271824 0.0126932 0.0629567 0.0287447 0.00858747 0.0655949 0.0287257 0.00865064 0.060689 
0.0131642 -0.0269575 0.0701849 0.0171917 -0.0245855 0.072937 0.0126602 -0.0271978 0.0750473 
0.0168646 -0.024811 0.0528279 0.016887 -0.0247957 0.0577874 0.0131502 -0.0269643 0.0553048 
0.0121597 0.0274252 0.0455363 0.0159583 0.0254034 0.0430623 0.0121708 0.0274203 0.0405769 
0.0131502 -0.0269643 0.0553048 0.016887 -0.0247957 0.0577874 0.0131694 -0.0269549 0.0602647 
0.03 -7.34788e-18 0.0307447 0.0296729 0.00441821 0.0331611 0.03 -7.34788e-18 0.0357447 
0.03 -7.34788e-18 0.0357447 0.0297233 -0.00406542 0.0332065 0.03 -7.34788e-18 0.0307447 
0.0121858 0.0274136 0.0306517 0.00813823 0.0288751 0.0331289 0.0121797 0.0274163 0.0356143 
0.0297233 -0.00406542 0.0332065 0.0288784 -0.0081264 0.0356076 0.0288525 -0.00821797 0.030677 
0.0287431 0.00859267 0.0356151 0.0296729 0.00441821 0.0331611 0.0287571 0.00854569 0.0306572 
0.015983 0.0253879 0.033137 0.0194517 0.0228393 0.0356187 0.0194616 0.0228308 0.0306565 
0.0225299 0.0198092 0.0331391 0.0251298 0.0163858 0.0356104 0.0251434 0.0163649 0.0306614 
0.0194517 0.0228393 0.0356187 0.0225299 0.0198092 0.0331391 0.0194616 0.0228308 0.0306565 
0.0251298 0.0163858 0.0356104 0.0272251 0.0126013 0.033131 0.0251434 0.0163649 0.0306614 
0.0121858 0.0274136 0.0306517 0.0121797 0.0274163 0.0356143 0.015983 0.0253879 0.033137 
0.0287431 0.00859267 0.0356151 0.0287571 0.00854569 0.0306572 0.0272251 0.0126013 0.033131 
-0.000357296 0.0299979 0.0331183 -0.00462888 0.0296407 0.0306373 -0.00464491 0.0296382 0.035592 
0.00813823 0.0288751 0.0331289 0.00392991 0.0297415 0.0306454 0.00392504 0.0297421 0.0356027 
0.00392991 0.0297415 0.0306454 -0.000357296 0.0299979 0.0331183 0.00392504 0.0297421 0.0356027 
-0.00464491 0.0296382 0.035592 -0.00462888 0.0296407 0.0306373 -0.00882299 0.0286732 0.0331082 
-0.0128338 0.0271163 0.0355818 -0.00882299 0.0286732 0.0331082 -0.0128226 0.0271216 0.0306219 
-0.0128338 0.0271163 0.0355818 -0.0128226 0.0271216 0.0306219 -0.0165704 0.0250085 0.0330965 
-0.0254809 0.0158343 0.0305986 -0.0254842 0.015829 0.035558 -0.022962 0.0193067 0.0330853 
-0.0199674 0.0223898 0.0306104 -0.022962 0.0193067 0.0330853 -0.019973 0.0223848 0.0355693 
-0.0199674 0.0223898 0.0306104 -0.019973 0.0223848 0.0355693 -0.0165704 0.0250085 0.0330965 
-0.0254809 0.0158343 0.0305986 -0.0274811 0.0120328 0.0330741 -0.0254842 0.015829 0.035558 
-0.0274811 0.0120328 0.0330741 -0.0289154 0.00799358 0.030589 -0.0289178 0.00798499 0.0355464 
0.0288784 -0.0081264 0.0356076 0.0274246 -0.012161 0.0329117 0.0288525 -0.00821797 0.030677 
-0.0289154 0.00799358 0.030589 -0.0297607 0.00378148 0.0330609 -0.0289178 0.00798499 0.0355464 
-0.0157166 -0.0255536 0.0330104 -0.0119063 -0.0275362 0.0305209 -0.0119034 -0.0275374 0.0354826 
-0.0299958 -0.000498983 0.0305779 -0.0299957 -0.000509448 0.0355343 -0.0297607 0.00378148 0.0330609 
-0.029617 -0.00477853 0.0330504 -0.0299957 -0.000509448 0.0355343 -0.0299958 -0.000498983 0.0305779 
-0.0286299 -0.00896271 0.0355224 -0.029617 -0.00477853 0.0330504 -0.0286333 -0.00895171 0.0305655 
-0.0286333 -0.00895171 0.0305655 -0.0270589 -0.0129544 0.0330388 -0.0286299 -0.00896271 0.0355224 
-0.0249357 -0.0166796 0.0305525 -0.0249314 -0.0166861 0.03551 -0.0270589 -0.0129544 0.0330388 
-0.0222976 -0.0200703 0.0330255 -0.0192072 -0.0230453 0.0305403 -0.019202 -0.0230496 0.0354975 
-0.0192072 -0.0230453 0.0305403 -0.0157166 -0.0255536 0.0330104 -0.019202 -0.0230496 0.0354975 
-0.0222976 -0.0200703 0.0330255 -0.0249314 -0.0166861 0.03551 -0.0249357 -0.0166796 0.0305525 
0.00494349 -0.0295899 0.030485 0.00912428 -0.0285788 0.0329606 0.00494989 -0.0295888 0.0354513 
-0.00784773 -0.0289554 0.0329911 -0.00363126 -0.0297794 0.0305006 -0.00362572 -0.0297801 0.0354651 
-0.00362572 -0.0297801 0.0354651 -0.00363126 -0.0297794 0.0305006 0.000666027 -0.0299926 0.0329756 
-0.0119034 -0.0275374 0.0354826 -0.0119063 -0.0275362 0.0305209 -0.00784773 -0.0289554 0.0329911 
0.000666027 -0.0299926 0.0329756 0.00494349 -0.0295899 0.030485 0.00494989 -0.0295888 0.0354513 
0.0131146 -0.0269816 0.0304696 0.0131178 -0.0269801 0.0354334 0.00912428 -0.0285788 0.0329606 
0.0254958 -0.0158102 0.0304422 0.0274246 -0.012161 0.0329117 0.0255076 -0.0157913 0.0354662 
0.0230725 -0.0191745 0.0329251 0.0254958 -0.0158102 0.0304422 0.0255076 -0.0157913 0.0354662 
0.0131146 -0.0269816 0.0304696 0.0168089 -0.0248488 0.0329371 0.0131178 -0.0269801 0.0354334 
0.0168089 -0.0248488 0.0329371 0.0201661 -0.022211 0.0304416 0.0201701 -0.0222073 0.0354077 
0.0201701 -0.0222073 0.0354077 0.0201661 -0.022211 0.0304416 0.0230725 -0.0191745 0.0329251 

POLYGONS 2035 6102
OFFSETS vtktypeint64
0 3 6 9 12 15 18 21 24 
27 30 33 36 39 42 45 48 51 
54 57 60 63 66 69 72 75 78 
81 84 87 90 93 96 99 102 105 
108 111 114 117 120 123 126 129 132 
135 138 141 144 147 150 153 156 159 
162 165 168 171 174 177 180 183 186 
189 192 195 198 201 204 207 210 213 
216 219 222 225 228 231 234 237 240 
243 246 249 252 255 258 261 264 267 
270 273 276 279 282 285 288 291 294 
297 300 303 306 309 312 315 318 321 
324 327 330 333 336 339 342 345 348 
351 354 357 360 363 366 369 372 375 
378 381 384 387 390 393 396 399 402 
405 408 411 414 417 420 423 426 429 
432 435 438 441 444 447 450 453 456 
459 462 465 468 471 474 477 480 483 
486 489 492 495 498 501 504 507 510 
513 516 519 522 525 528 531 534 537 
540 543 546 549 552 555 558 561 564 
567 570 573 576 579 582 585 588 591 
594 597 600 603 606 609 612 615 618 
621 624 627 630 633 636 639 642 645 
648 651 654 657 660 663 666 669 672 
675 678 681 684 687 690 693 696 699 
702 705 708 711 714 717 720 723 726 
729 732 735 738 741 744 747 750 753 
756 759 762 765 768 771 774 777 780 
783 786 789 792 795 798 801 804 807 
810 813 816 819 822 825 828 831 834 
837 840 843 846 849 852 855 858 861 
864 867 870 873 876 879 882 885 888 
891 894 897 900 903 906 909 912 915 
918 921 924 927 930 933 936 939 942 
945 948 951 954 957 960 963 966 969 
972 975 978 981 984 987 990 993 996 
999 1002 1005 1008 1011 1014 1017 1020 1023 
1026 1029 1032 1035 1038 1041 1044 1047 1050 
1053 1056 1059 1062 1065 1068 1071 1074 1077 
1080 1083 1086 1089 1092 1095 1098 1101 1104 
1107 1110 1113 1116 1119 1122 1125 1128 1131 
1134 1137 1140 1143 1146 1149 1152 1155 1158 
1161 1164 1167 1170 1173 1176 1179 1182 1185 
1188 1191 1194 1197 1200 1203 1206 1209 1212 
1215 1218 1221 1224 1227 1230 1233 1236 1239 
1242 1245 1248 1251 1254 1257 1260 1263 1266 
1269 1272 1275 1278 1281 1284 1287 1290 1293 
1296 1299 1302 1305 1308 1311 1314 1317 1320 
1323 1326 1329 1332 1335 1338 1341 1344 1347 
1350 1353 1356 1359 1362 1365 1368 1371 1374 
1377 1380 1383 1386 1389 1392 1395 1398 1401 
1404 1407 1410 1413 1416 1419 1422 1425 1428 
1431 1434 1437 1440 1443 1446 1449 1452 1455 
1458 1461 1464 1467 1470 1473 1476 1479 1482 
1485 1488 1491 1494 1497 1500 1503 1506 1509 
1512 1515 1518 1521 1524 1527 1530 1533 1536 
1539 1542 1545 1548 1551 1554 1557 1560 1563 
1566 1569 1572 1575 1578 1581 1584 1587 1590 
1593 1596 1599 1602 1605 1608 1611 1614 1617 
1620 1623 1626 1629 1632 1635 1638 1641 1644 
1647 1650 1653 1656 1659 1662 1665 1668 1671 
1674 1677 1680 1683 1686 1689 1692 1695 1698 
1701 1704 1707 1710 1713 1716 1719 1722 1725 
1728 1731 1734 1737 1740 1743 1746 1749 1752 
1755 1758 1761 1764 1767 1770 1773 1776 1779 
1782 1785 1788 1791 1794 1797 1800 1803 1806 
1809 1812 1815 1818 1821 1824 1827 1830 1833 
1836 1839 1842 1845 1848 1851 1854 1857 1860 
1863 1866 1869 1872 1875 1878 1881 1884 1887 
1890 1893 1896 1899 1902 1905 1908 1911 1914 
1917 1920 1923 1926 1929 1932 1935 1938 1941 
1944 1947 1950 1953 1956 1959 1962 1965 1968 
1971 1974 1977 1980 1983 1986 1989 1992 1995 
1998 2001 2004 2007 2010 2013 2016 2019 2022 
2025 2028 2031 2034 2037 2040 2043 2046 2049 
2052 2055 2058 2061 2064 2067 2070 2073 2076 
2079 2082 2085 2088 2091 2094 2097 2100 2103 
2106 2109 2112 2115 2118 2121 2124 2127 2130 
2133 2136 2139 2142 2145 2148 2151 2154 2157 
2160 2163 2166 2169 2172 2175 2178 2181 2184 
2187 2190 2193 2196 2199 2202 2205 2208 2211 
2214 2217 2220 2223 2226 2229 2232 2235 2238 
2241 2244 2247 2250 2253 2256 2259 2262 2265 
2268 2271 2274 2277 2280 2283 2286 2289 2292 
2295 2298 2301 2304 2307 2310 2313 2316 2319 
2322 2325 2328 2331 2334 2337 2340 2343 2346 
2349 2352 2355 2358 2361 2364 2367 2370 2373 
2376 2379 2382 2385 2388 2391 2394 2397 2400 
2403 2406 2409 2412 2415 2418 2421 2424 2427 
2430 2433 2436 2439 2442 2445 2448 2451 2454 
2457 2460 2463 2466 2469 2472 2475 2478 2481 
2484 2487 2490 2493 2496 2499 2502 2505 2508 
2511 2514 2517 2520 2523 2526 2529 2532 2535 
2538 2541 2544 2547 2550 2553 2556 2559 2562 
2565 2568 2571 2574 2577 2580 2583 2586 2589 
2592 2595 2598 2601 2604 2607 2610 2613 2616 
2619 2622 2625 2628 2631 2634 2637 2640 2643 
2646 2649 2652 2655 2658 2661 2664 2667 2670 
2673 2676 2679 2682 2685 2688 2691 2694 2697 
2700 2703 2706 2709 2712 2715 2718 2721 2724 
2727 2730 2733 2736 2739 2742 2745 2748 2751 
2754 2757 2760 2763 2766 2769 2772 2775 2778 
2781 2784 2787 2790 2793 2796 2799 2802 2805 
2808 2811 2814 2817 2820 2823 2826 2829 2832 
2835 2838 2841 2844 2847 2850 2853 2856 2859 
2862 2865 2868 2871 2874 2877 2880 2883 2886 
2889 2892 2895 2898 2901 2904 2907 2910 2913 
2916 2919 2922 2925 2928 2931 2934 2937 2940 
2943 2946 2949 2952 2955 2958 2961 2964 2967 
2970 2973 2976 2979 2982 2985 2988 2991 2994 
2997 3000 3003 3006 3009 3012 3015 3018 3021 
3024 3027 3030 3033 3036 3039 3042 3045 3048 
3051 3054 3057 3060 3063 3066 3069 3072 3075 
3078 3081 3084 3087 3090 3093 3096 3099 3102 
3105 3108 3111 3114 3117 3120 3123 3126 3129 
3132 3135 3138 3141 3144 3147 3150 3153 3156 
3159 3162 3165 3168 3171 3174 3177 3180 3183 
3186 3189 3192 3195 3198 3201 3204 3207 3210 
3213 3216 3219 3222 3225 3228 3231 3234 3237 
3240 3243 3246 3249 3252 3255 3258 3261 3264 
3267 3270 3273 3276 3279 3282 3285 3288 3291 
3294 3297 3300 3303 3306 3309 3312 3315 3318 
3321 3324 3327 3330 3333 3336 3339 3342 3345 
3348 3351 3354 3357 3360 3363 3366 3369 3372 
3375 3378 3381 3384 3387 3390 3393 3396 3399 
3402 3405 3408 3411 3414 3417 3420 3423 3426 
3429 3432 3435 3438 3441 3444 3447 3450 3453 
3456 3459 3462 3465 3468 3471 3474 3477 3480 
3483 3486 3489 3492 3495 3498 3501 3504 3507 
3510 3513 3516 3519 3522 3525 3528 3531 3534 
3537 3540 3543 3546 3549 3552 3555 3558 3561 
3564 3567 3570 3573 3576 3579 3582 3585 3588 
3591 3594 3597 3600 3603 3606 3609 3612 3615 
3618 3621 3624 3627 3630 3633 3636 3639 3642 
3645 3648 3651 3654 3657 3660 3663 3666 3669 
3672 3675 3678 3681 3684 3687 3690 3693 3696 
3699 3702 3705 3708 3711 3714 3717 3720 3723 
3726 3729 3732 3735 3738 3741 3744 3747 3750 
3753 3756 3759 3762 3765 3768 3771 3774 3777 
3780 3783 3786 3789 3792 3795 3798 3801 3804 
3807 3810 3813 3816 3819 3822 3825 3828 3831 
3834 3837 3840 3843 3846 3849 3852 3855 3858 
3861 3864 3867 3870 3873 3876 3879 3882 3885 
3888 3891 3894 3897 3900 3903 3906 3909 3912 
3915 3918 3921 3924 3927 3930 3933 3936 3939 
3942 3945 3948 3951 3954 3957 3960 3963 3966 
3969 3972 3975 3978 3981 3984 3987 3990 3993 
3996 3999 4002 4005 4008 4011 4014 4017 4020 
4023 4026 4029 4032 4035 4038 4041 4044 4047 
4050 4053 4056 4059 4062 4065 4068 4071 4074 
4077 4080 4083 4086 4089 4092 4095 4098 4101 
4104 4107 4110 4113 4116 4119 4122 4125 4128 
4131 4134 4137 4140 4143 4146 4149 4152 4155 
4158 4161 4164 4167 4170 4173 4176 4179 4182 
4185 4188 4191 4194 4197 4200 4203 4206 4209 
4212 4215 4218 4221 4224 4227 4230 4233 4236 
4239 4242 4245 4248 4251 4254 4257 4260 4263 
4266 4269 4272 4275 4278 4281 4284 4287 4290 
4293 4296 4299 4302 4305 4308 4311 4314 4317 
4320 4323 4326 4329 4332 4335 4338 4341 4344 
4347 4350 4353 4356 4359 4362 4365 4368 4371 
4374 4377 4380 4383 4386 4389 4392 4395 4398 
4401 4404 4407 4410 4413 4416 4419 4422 4425 
4428 4431 4434 4437 4440 4443 4446 4449 4452 
4455 4458 4461 4464 4467 4470 4473 4476 4479 
4482 4485 4488 4491 4494 4497 4500 4503 4506 
4509 4512 4515 4518 4521 4524 4527 4530 4533 
4536 4539 4542 4545 4548 4551 4554 4557 4560 
4563 4566 4569 4572 4575 4578 4581 4584 4587 
4590 4593 4596 4599 4602 4605 4608 4611 4614 
4617 4620 4623 4626 4629 4632 4635 4638 4641 
4644 4647 4650 4653 4656 4659 4662 4665 4668 
4671 4674 4677 4680 4683 4686 4689 4692 4695 
4698 4701 4704 4707 4710 4713 4716 4719 4722 
4725 4728 4731 4734 4737 4740 4743 4746 4749 
4752 4755 4758 4761 4764 4767 4770 4773 4776 
4779 4782 4785 4788 4791 4794 4797 4800 4803 
4806 4809 4812 4815 4818 4821 4824 4827 4830 
4833 4836 4839 4842 4845 4848 4851 4854 4857 
4860 4863 4866 4869 4872 4875 4878 4881 4884 
4887 4890 4893 4896 4899 4902 4905 4908 4911 
4914 4917 4920 4923 4926 4929 4932 4935 4938 
4941 4944 4947 4950 4953 4956 4959 4962 4965 
4968 4971 4974 4977 4980 4983 4986 4989 4992 
4995 4998 5001 5004 5007 5010 5013 5016 5019 
5022 5025 5028 5031 5034 5037 5040 5043 5046 
5049 5052 5055 5058 5061 5064 5067 5070 5073 
5076 5079 5082 5085 5088 5091 5094 5097 5100 
5103 5106 5109 5112 5115 5118 5121 5124 5127 
5130 5133 5136 5139 5142 5145 5148 5151 5154 
5157 5160 5163 5166 5169 5172 5175 5178 5181 
5184 5187 5190 5193 5196 5199 5202 5205 5208 
5211 5214 5217 5220 5223 5226 5229 5232 5235 
5238 5241 5244 5247 5250 5253 5256 5259 5262 
5265 5268 5271 5274 5277 5280 5283 5286 5289 
5292 5295 5298 5301 5304 5307 5310 5313 5316 
5319 5322 5325 5328 5331 5334 5337 5340 5343 
5346 5349 5352 5355 5358 5361 5364 5367 5370 
5373 5376 5379 5382 5385 5388 5391 5394 5397 
5400 5403 5406 5409 5412 5415 5418 5421 5424 
5427 5430 5433 5436 5439 5442 5445 5448 5451 
5454 5457 5460 5463 5466 5469 5472 5475 5478 
5481 5484 5487 5490 5493 5496 5499 5502 5505 
5508 5511 5514 5517 5520 5523 5526 5529 5532 
5535 5538 5541 5544 5547 5550 5553 5556 5559 
5562 5565 5568 5571 5574 5577 5580 5583 5586 
5589 5592 5595 5598 5601 5604 5607 5610 5613 
5616 5619 5622 5625 5628 5631 5634 5637 5640 
5643 5646 5649 5652 5655 5658 5661 5664 5667 
5670 5673 5676 5679 5682 5685 5688 5691 5694 
5697 5700 5703 5706 5709 5712 5715 5718 5721 
5724 5727 5730 5733 5736 5739 5742 5745 5748 
5751 5754 5757 5760 5763 5766 5769 5772 5775 
5778 5781 5784 5787 5790 5793 5796 5799 5802 
5805 5808 5811 5814 5817 5820 5823 5826 5829 
5832 5835 5838 5841 5844 5847 5850 5853 5856 
5859 5862 5865 5868 5871 5874 5877 5880 5883 
5886 5889 5892 5895 5898 5901 5904 5907 5910 
5913 5916 5919 5922 5925 5928 5931 5934 5937 
5940 5943 5946 5949 5952 5955 5958 5961 5964 
5967 5970 5973 5976 5979 5982 5985 5988 5991 
5994 5997 6000 6003 6006 6009 6012 6015 6018 
6021 6024 6027 6030 6033 6036 6039 6042 6045 
6048 6051 6054 6057 6060 6063 6066 6069 6072 
6075 6078 6081 6084 6087 6090 6093 6096 6099 
6102 
CONNECTIVITY vtktypeint64
0 1 2 3 4 5 6 7 8 
9 10 11 12 13 14 15 16 17 
18 19 20 21 22 23 24 25 26 
27 28 29 30 31 32 33 34 35 
36 37 38 39 40 41 42 43 44 
45 46 47 48 49 50 51 52 53 
54 55 56 57 58 59 60 61 62 
63 64 65 66 67 68 69 70 71 
72 73 74 75 76 77 78 79 80 
81 82 83 84 85 86 87 88 89 
90 91 92 93 94 95 96 97 98 
99 100 101 102 103 104 105 106 107 
108 109 110 111 112 113 114 115 116 
117 118 119 120 121 122 123 124 125 
126 127 128 129 130 131 132 133 134 
135 136 137 138 139 140 141 142 143 
144 145 146 147 148 149 150 151 152 
153 154 155 156 157 158 159 160 161 
162 163 164 165 166 167 168 169 170 
171 172 173 174 175 176 177 178 179 
180 181 182 183 184 185 186 187 188 
189 190 191 192 193 194 195 196 197 
198 199 200 201 202 203 204 205 206 
207 208 209 210 211 212 213 214 215 
216 217 218 219 220 221 222 223 224 
225 226 227 228 229 230 231 232 233 
234 235 236 237 238 239 240 241 242 
243 244 245 246 247 248 249 250 251 
252 253 254 255 256 257 258 259 260 
261 262 263 264 265 266 267 268 269 
270 271 272 273 274 275 276 277 278 
279 280 281 282 283 284 285 286 287 
288 289 290 291 292 293 294 295 296 
297 298 299 300 301 302 303 304 305 
306 307 308 309 310 311 312 313 314 
315 316 317 318 319 320 321 322 323 
324 325 326 327 328 329 330 331 332 
333 334 335 336 337 338 339 340 341 
342 343 344 345 346 347 348 349 350 
351 352 353 354 355 356 357 358 359 
360 361 362 363 364 365 366 367 368 
369 370 371 372 373 374 375 376 377 
378 379 380 381 382 383 384 385 386 
387 388 389 390 391 392 393 394 395 
396 397 398 399 400 401 402 403 404 
405 406 407 408 409 410 411 412 413 
414 415 416 417 418 419 420 421 422 
423 424 425 426 427 428 429 430 431 
432 433 434 435 436 437 438 439 440 
441 442 443 444 445 446 447 448 449 
450 451 452 453 454 455 456 457 458 
459 460 461 462 463 464 465 466 467 
468 469 470 471 472 473 474 475 476 
477 478 479 480 481 482 483 484 485 
486 487 488 489 490 491 492 493 494 
495 496 497 498 499 500 501 502 503 
504 505 506 507 508 509 510 511 512 
513 514 515 516 517 518 519 520 521 
522 523 524 525 526 527 528 529 530 
531 532 533 534 535 536 537 538 539 
540 541 542 543 544 545 546 547 548 
549 550 551 552 553 554 555 556 557 
558 559 560 561 562 563 564 565 566 
567 568 569 570 571 572 573 574 575 
576 577 578 579 580 581 582 583 584 
585 586 587 588 589 590 591 592 593 
594 595 596 597 598 599 600 601 602 
603 604 605 606 607 608 609 610 611 
612 613 614 615 616 617 618 619 620 
621 622 623 624 625 626 627 628 629 
630 631 632 633 634 635 636 637 638 
639 640 641 642 643 644 645 646 647 
648 649 650 651 652 653 654 655 656 
657 658 659 660 661 662 663 664 665 
666 667 668 669 670 671 672 673 674 
675 676 677 678 679 680 681 682 683 
684 685 686 687 688 689 690 691 692 
693 694 695 696 697 698 699 700 701 
702 703 704 705 706 707 708 709 710 
711 712 713 714 715 716 717 718 719 
720 721 722 723 724 725 726 727 728 
729 730 731 732 733 734 735 736 737 
738 739 740 741 742 743 744 745 746 
747 748 749 750 751 752 753 754 755 
756 757 758 759 760 761 762 763 764 
765 766 767 768 769 770 771 772 773 
774 775 776 777 778 779 780 781 782 
783 784 785 786 787 788 789 790 791 
792 793 794 795 796 797 798 799 800 
801 802 803 804 805 806 807 808 809 
810 811 812 813 814 815 816 817 818 
819 820 821 822 823 824 825 826 827 
828 829 830 831 832 833 834 835 836 
837 838 839 840 841 842 843 844 845 
846 847 848 849 850 851 852 853 854 
855 856 857 858 859 860 861 862 863 
864 865 866 867 868 869 870 871 872 
873 874 875 876 877 878 879 880 881 
882 883 884 885 886 887 888 889 890 
891 892 893 894 895 896 897 898 899 
900 901 902 903 904 905 906 907 908 
909 910 911 912 913 914 915 916 917 
918 919 920 921 922 923 924 925 926 
927 928 929 930 931 932 933 934 935 
936 937 938 939 940 941 942 943 944 
945 946 947 948 949 950 951 952 953 
954 955 956 957 958 959 960 961 962 
963 964 965 966 967 968 969 970 971 
972 973 974 975 976 977 978 979 980 
981 982 983 984 985 986 987 988 989 
990 991 992 993 994 995 996 997 998 
999 1000 1001 1002 1003 1004 1005 1006 1007 
1008 1009 1010 1011 1012 1013 1014 1015 1016 
1017 1018 1019 1020 1021 1022 1023 1024 1025 
1026 1027 1028 1029 1030 1031 1032 1033 1034 
1035 1036 1037 1038 1039 1040 1041 1042 1043 
1044 1045 1046 1047 1048 1049 1050 1051 1052 
1053 1054 1055 1056 1057 1058 1059 1060 1061 
1062 1063 1064 1065 1066 1067 1068 1069 1070 
1071 1072 1073 1074 1075 1076 1077 1078 1079 
1080 1081 1082 1083 1084 1085 1086 1087 1088 
1089 1090 1091 1092 1093 1094 1095 1096 1097 
1098 1099 1100 1101 1102 1103 1104 1105 1106 
1107 1108 1109 1110 1111 1112 1113 1114 1115 
1116 1117 1118 1119 1120 1121 1122 1123 1124 
1125 1126 1127 1128 1129 1130 1131 1132 1133 
1134 1135 1136 1137 1138 1139 1140 1141 1142 
1143 1144 1145 1146 1147 1148 1149 1150 1151 
1152 1153 1154 1155 1156 1157 1158 1159 1160 
1161 1162 1163 1164 1165 1166 1167 1168 1169 
1170 1171 1172 1173 1174 1175 1176 1177 1178 
1179 1180 1181 1182 1183 1184 1185 1186 1187 
1188 1189 1190 1191 1192 1193 1194 1195 1196 
1197 1198 1199 1200 1201 1202 1203 1204 1205 
1206 1207 1208 1209 1210 1211 1212 1213 1214 
1215 1216 1217 1218 1219 1220 1221 1222 1223 
1224 1225 1226 1227 1228 1229 1230 1231 1232 
1233 1234 1235 1236 1237 1238 1239 1240 1241 
1242 1243 1244 1245 1246 1247 1248 1249 1250 
1251 1252 1253 1254 1255 1256 1257 1258 1259 
1260 1261 1262 1263 1264 1265 1266 1267 1268 
1269 1270 1271 1272 1273 1274 1275 1276 1277 
1278 1279 1280 1281 1282 1283 1284 1285 1286 
1287 1288 1289 1290 1291 1292 1293 1294 1295 
1296 1297 1298 1299 1300 1301 1302 1303 1304 
1305 1306 1307 1308 1309 1310 1311 1312 1313 
1314 1315 1316 1317 1318 1319 1320 1321 1322 
1323 1324 1325 1326 1327 1328 1329 1330 1331 
1332 1333 1334 1335 1336 1337 1338 1339 1340 
1341 1342 1343 1344 1345 1346 1347 1348 1349 
1350 1351 1352 1353 1354 1355 1356 1357 1358 
1359 1360 1361 1362 1363 1364 1365 1366 1367 
1368 1369 1370 1371 1372 1373 1374 1375 1376 
1377 1378 1379 1380 1381 1382 1383 1384 1385 
1386 1387 1388 1389 1390 1391 1392 1393 1394 
1395 1396 1397 1398 1399 1400 1401 1402 1403 
1404 1405 1406 1407 1408 1409 1410 1411 1412 
1413 1414 1415 1416 1417 1418 1419 1420 1421 
1422 1423 1424 1425 1426 1427 1428 1429 1430 
1431 1432 1433 1434 1435 1436 1437 1438 1439 
1440 1441 1442 1443 1444 1445 1446 1447 1448 
1449 1450 1451 1452 1453 1454 1455 1456 1457 
1458 1459 1460 1461 1462 1463 1464 1465 1466 
1467 1468 1469 1470 1471 1472 1473 1474 1475 
1476 1477 1478 1479 1480 1481 1482 1483 1484 
1485 1486 1487 1488 1489 1490 1491 1492 1493 
1494 1495 1496 1497 1498 1499 1500 1501 1502 
1503 1504 1505 1506 1507 1508 1509 1510 1511 
1512 1513 1514 1515 1516 1517 1518 1519 1520 
1521 1522 1523 1524 1525 1526 1527 1528 1529 
1530 1531 1532 1533 1534 1535 1536 1537 1538 
1539 1540 1541 1542 1543 1544 1545 1546 1547 
1548 1549 1550 1551 1552 1553 1554 1555 1556 
1557 1558 1559 1560 1561 1562 1563 1564 1565 
1566 1567 1568 1569 1570 1571 1572 1573 1574 
1575 1576 1577 1578 1579 1580 1581 1582 1583 
1584 1585 1586 1587 1588 1589 1590 1591 1592 
1593 1594 1595 1596 1597 1598 1599 1600 1601 
1602 1603 1604 1605 1606 1607 1608 1609 1610 
1611 1612 1613 1614 1615 1616 1617 1618 1619 
1620 1621 1622 1623 1624 1625 1626 1627 1628 
1629 1630 1631 1632 1633 1634 1635 1636 1637 
1638 1639 1640 1641 1642 1643 1644 1645 1646 
1647 1648 1649 1650 1651 1652 1653 1654 1655 
1656 1657 1658 1659 1660 1661 1662 1663 1664 
1665 1666 1667 1668 1669 1670 1671 1672 1673 
1674 1675 1676 1677 1678 1679 1680 1681 1682 
1683 1684 1685 1686 1687 1688 1689 1690 1691 
1692 1693 1694 1695 1696 1697 1698 1699 1700 
1701 1702 1703 1704 1705 1706 1707 1708 1709 
1710 1711 1712 1713 1714 1715 1716 1717 1718 
1719 1720 1721 1722 1723 1724 1725 1726 1727 
1728 1729 1730 1731 1732 1733 1734 1735 1736 
1737 1738 1739 1740 1741 1742 1743 1744 1745 
1746 1747 1748 1749 1750 1751 1752 1753 1754 
1755 1756 1757 1758 1759 1760 1761 1762 1763 
1764 1765 1766 1767 1768 1769 1770 1771 1772 
1773 1774 1775 1776 1777 1778 1779 1780 1781 
1782 1783 1784 1785 1786 1787 1788 1789 1790 
1791 1792 1793 1794 1795 1796 1797 1798 1799 
1800 1801 1802 1803 1804 1805 1806 1807 1808 
1809 1810 1811 1812 1813 1814 1815 1816 1817 
1818 1819 1820 1821 1822 1823 1824 1825 1826 
1827 1828 1829 1830 1831 1832 1833 1834 1835 
1836 1837 1838 1839 1840 1841 1842 1843 1844 
1845 1846 1847 1848 1849 1850 1851 1852 1853 
1854 1855 1856 1857 1858 1859 1860 1861 1862 
1863 1864 1865 1866 1867 1868 1869 1870 1871 
1872 1873 1874 1875 1876 1877 1878 1879 1880 
1881 1882 1883 1884 1885 1886 1887 1888 1889 
1890 1891 1892 1893 1894 1895 1896 1897 1898 
1899 1900 1901 1902 1903 1904 1905 1906 1907 
1908 1909 1910 1911 1912 1913 1914 1915 1916 
1917 1918 1919 1920 1921 1922 1923 1924 1925 
1926 1927 1928 1929 1930 1931 1932 1933 1934 
1935 1936 1937 1938 1939 1940 1941 1942 1943 
1944 1945 1946 1947 1948 1949 1950 1951 1952 
1953 1954 1955 1956 1957 1958 1959 1960 1961 
1962 1963 1964 1965 1966 1967 1968 1969 1970 
1971 1972 1973 1974 1975 1976 1977 1978 1979 
1980 1981 1982 1983 1984 1985 1986 1987 1988 
1989 1990 1991 1992 1993 1994 1995 1996 1997 
1998 1999 2000 2001 2002 2003 2004 2005 2006 
2007 2008 2009 2010 2011 2012 2013 2014 2015 
2016 2017 2018 2019 2020 2021 2022 2023 2024 
2025 2026 2027 2028 2029 2030 2031 2032 2033 
2034 2035 2036 2037 2038 2039 2040 2041 2042 
2043 2044 2045 2046 2047 2048 2049 2050 2051 
2052 2053 2054 2055 2056 2057 2058 2059 2060 
2061 2062 2063 2064 2065 2066 2067 2068 2069 
2070 2071 2072 2073 2074 2075 2076 2077 2078 
2079 2080 2081 2082 2083 2084 2085 2086 2087 
2088 2089 2090 2091 2092 2093 2094 2095 2096 
2097 2098 2099 2100 2101 2102 2103 2104 2105 
2106 2107 2108 2109 2110 2111 2112 2113 2114 
2115 2116 2117 2118 2119 2120 2121 2122 2123 
2124 2125 2126 2127 2128 2129 2130 2131 2132 
2133 2134 2135 2136 2137 2138 2139 2140 2141 
2142 2143 2144 2145 2146 2147 2148 2149 2150 
2151 2152 2153 2154 2155 2156 2157 2158 2159 
2160 2161 2162 2163 2164 2165 2166 2167 2168 
2169 2170 2171 2172 2173 2174 2175 2176 2177 
2178 2179 2180 2181 2182 2183 2184 2185 2186 
2187 2188 2189 2190 2191 2192 2193 2194 2195 
2196 2197 2198 2199 2200 2201 2202 2203 2204 
2205 2206 2207 2208 2209 2210 2211 2212 2213 
2214 2215 2216 2217 2218 2219 2220 2221 2222 
2223 2224 2225 2226 2227 2228 2229 2230 2231 
2232 2233 2234 2235 2236 2237 2238 2239 2240 
2241 2242 2243 2244 2245 2246 2247 2248 2249 
2250 2251 2252 2253 2254 2255 2256 2257 2258 
2259 2260 2261 2262 2263 2264 2265 2266 2267 
2268 2269 2270 2271 2272 2273 2274 2275 2276 
2277 2278 2279 2280 2281 2282 2283 2284 2285 
2286 2287 2288 2289 2290 2291 2292 2293 2294 
2295 2296 2297 2298 2299 2300 2301 2302 2303 
2304 2305 2306 2307 2308 2309 2310 2311 2312 
2313 2314 2315 2316 2317 2318 2319 2320 2321 
2322 2323 2324 2325 2326 2327 2328 2329 2330 
2331 2332 2333 2334 2335 2336 2337 2338 2339 
2340 2341 2342 2343 2344 2345 2346 2347 2348 
2349 2350 2351 2352 2353 2354 2355 2356 2357 
2358 2359 2360 2361 2362 2363 2364 2365 2366 
2367 2368 2369 2370 2371 2372 2373 2374 2375 
2376 2377 2378 2379 2380 2381 2382 2383 2384 
2385 2386 2387 2388 2389 2390 2391 2392 2393 
2394 2395 2396 2397 2398 2399 2400 2401 2402 
2403 2404 2405 2406 2407 2408 2409 2410 2411 
2412 2413 2414 2415 2416 2417 2418 2419 2420 
2421 2422 2423 2424 2425 2426 2427 2428 2429 
2430 2431 2432 2433 2434 2435 2436 2437 2438 
2439 2440 2441 2442 2443 2444 2445 2446 2447 
2448 2449 2450 2451 2452 2453 2454 2455 2456 
2457 2458 2459 2460 2461 2462 2463 2464 2465 
2466 2467 2468 2469 2470 2471 2472 2473 2474 
2475 2476 2477 2478 2479 2480 2481 2482 2483 
2484 2485 2486 2487 2488 2489 2490 2491 2492 
2493 2494 2495 2496 2497 2498 2499 2500 2501 
2502 2503 2504 2505 2506 2507 2508 2509 2510 
2511 2512 2513 2514 2515 2516 2517 2518 2519 
2520 2521 2522 2523 2524 2525 2526 2527 2528 
2529 2530 2531 2532 2533 2534 2535 2536 2537 
2538 2539 2540 2541 2542 2543 2544 2545 2546 
2547 2548 2549 2550 2551 2552 2553 2554 2555 
2556 2557 2558 2559 2560 2561 2562 2563 2564 
2565 2566 2567 2568 2569 2570 2571 2572 2573 
2574 2575 2576 2577 2578 2579 2580 2581 2582 
2583 2584 2585 2586 2587 2588 2589 2590 2591 
2592 2593 2594 2595 2596 2597 2598 2599 2600 
2601 2602 2603 2604 2605 2606 2607 2608 2609 
2610 2611 2612 2613 2614 2615 2616 2617 2618 
2619 2620 2621 2622 2623 2624 2625 2626 2627 
2628 2629 2630 2631 2632 2633 2634 2635 2636 
2637 2638 2639 2640 2641 2642 2643 2644 2645 
2646 2647 2648 2649 2650 2651 2652 2653 2654 
2655 2656 2657 2658 2659 2660 2661 2662 2663 
2664 2665 2666 2667 2668 2669 2670 2671 2672 
2673 2674 2675 2676 2677 2678 2679 2680 2681 
2682 2683 2684 2685 2686 2687 2688 2689 2690 
2691 2692 2693 2694 2695 2696 2697 2698 2699 
2700 2701 2702 2703 2704 2705 2706 2707 2708 
2709 2710 2711 2712 2713 2714 2715 2716 2717 
2718 2719 2720 2721 2722 2723 2724 2725 2726 
2727 2728 2729 2730 2731 2732 2733 2734 2735 
2736 2737 2738 2739 2740 2741 2742 2743 2744 
2745 2746 2747 2748 2749 2750 2751 2752 2753 
2754 2755 2756 2757 2758 2759 2760 2761 2762 
2763 2764 2765 2766 2767 2768 2769 2770 2771 
2772 2773 2774 2775 2776 2777 2778 2779 2780 
2781 2782 2783 2784 2785 2786 2787 2788 2789 
2790 2791 2792 2793 2794 2795 2796 2797 2798 
2799 2800 2801 2802 2803 2804 2805 2806 2807 
2808 2809 2810 2811 2812 2813 2814 2815 2816 
2817 2818 2819 2820 2821 2822 2823 2824 2825 
2826 2827 2828 2829 2830 2831 2832 2833 2834 
2835 2836 2837 2838 2839 2840 2841 2842 2843 
2844 2845 2846 2847 2848 2849 2850 2851 2852 
2853 2854 2855 2856 2857 2858 2859 2860 2861 
2862 2863 2864 2865 2866 2867 2868 2869 2870 
2871 2872 2873 2874 2875 2876 2877 2878 2879 
2880 2881 2882 2883 2884 2885 2886 2887 2888 
2889 2890 2891 2892 2893 2894 2895 2896 2897 
2898 2899 2900 2901 2902 2903 2904 2905 2906 
2907 2908 2909 2910 2911 2912 2913 2914 2915 
2916 2917 2918 2919 2920 2921 2922 2923 2924 
2925 2926 2927 2928 2929 2930 2931 2932 2933 
2934 2935 2936 2937 2938 2939 2940 2941 2942 
2943 2944 2945 2946 2947 2948 2949 2950 2951 
2952 2953 2954 2955 2956 2957 2958 2959 2960 
2961 2962 2963 2964 2965 2966 2967 2968 2969 
2970 2971 2972 2973 2974 2975 2976 2977 2978 
2979 2980 2981 2982 2983 2984 2985 2986 2987 
2988 2989 2990 2991 2992 2993 2994 2995 2996 
2997 2998 2999 3000 3001 3002 3003 3004 3005 
3006 3007 3008 3009 3010 3011 3012 3013 3014 
3015 3016 3017 3018 3019 3020 3021 3022 3023 
3024 3025 3026 3027 3028 3029 3030 3031 3032 
3033 3034 3035 3036 3037 3038 3039 3040 3041 
3042 3043 3044 3045 3046 3047 3048 3049 3050 
3051 3052 3053 3054 3055 3056 3057 3058 3059 
3060 3061 3062 3063 3064 3065 3066 3067 3068 
3069 3070 3071 3072 3073 3074 3075 3076 3077 
3078 3079 3080 3081 3082 3083 3084 3085 3086 
3087 3088 3089 3090 3091 3092 3093 3094 3095 
3096 3097 3098 3099 3100 3101 3102 3103 3104 
3105 3106 3107 3108 3109 3110 3111 3112 3113 
3114 3115 3116 3117 3118 3119 3120 3121 3122 
3123 3124 3125 3126 3127 3128 3129 3130 3131 
3132 3133 3134 3135 3136 3137 3138 3139 3140 
3141 3142 3143 3144 3145 3146 3147 3148 3149 
3150 3151 3152 3153 3154 3155 3156 3157 3158 
3159 3160 3161 3162 3163 3164 3165 3166 3167 
3168 3169 3170 3171 3172 3173 3174 3175 3176 
3177 3178 3179 3180 3181 3182 3183 3184 3185 
3186 3187 3188 3189 3190 3191 3192 3193 3194 
3195 3196 3197 3198 3199 3200 3201 3202 3203 
3204 3205 3206 3207 3208 3209 3210 3211 3212 
3213 3214 3215 3216 3217 3218 3219 3220 3221 
3222 3223 3224 3225 3226 3227 3228 3229 3230 
3231 3232 3233 3234 3235 3236 3237 3238 3239 
3240 3241 3242 3243 3244 3245 3246 3247 3248 
3249 3250 3251 3252 3253 3254 3255 3256 3257 
3258 3259 3260 3261 3262 3263 3264 3265 3266 
3267 3268 3269 3270 3271 3272 3273 3274 3275 
3276 3277 3278 3279 3280 3281 3282 3283 3284 
3285 3286 3287 3288 3289 3290 3291 3292 3293 
3294 3295 3296 3297 3298 3299 3300 3301 3302 
3303 3304 3305 3306 3307 3308 3309 3310 3311 
3312 3313 3314 3315 3316 3317 3318 3319 3320 
3321 3322 3323 3324 3325 3326 3327 3328 3329 
3330 3331 3332 3333 3334 3335 3336 3337 3338 
3339 3340 3341 3342 3343 3344 3345 3346 3347 
3348 3349 3350 3351 3352 3353 3354 3355 3356 
3357 3358 3359 3360 3361 3362 3363 3364 3365 
3366 3367 3368 3369 3370 3371 3372 3373 3374 
3375 3376 3377 3378 3379 3380 3381 3382 3383 
3384 3385 3386 3387 3388 3389 3390 3391 3392 
3393 3394 3395 3396 3397 3398 3399 3400 3401 
3402 3403 3404 3405 3406 3407 3408 3409 3410 
3411 3412 3413 3414 3415 3416 3417 3418 3419 
3420 3421 3422 3423 3424 3425 3426 3427 3428 
3429 3430 3431 3432 3433 3434 3435 3436 3437 
3438 3439 3440 3441 3442 3443 3444 3445 3446 
3447 3448 3449 3450 3451 3452 3453 3454 3455 
3456 3457 3458 3459 3460 3461 3462 3463 3464 
3465 3466 3467 3468 3469 3470 3471 3472 3473 
3474 3475 3476 3477 3478 3479 3480 3481 3482 
3483 3484 3485 3486 3487 3488 3489 3490 3491 
3492 3493 3494 3495 3496 3497 3498 3499 3500 
3501 3502 3503 3504 3505 3506 3507 3508 3509 
3510 3511 3512 3513 3514 3515 3516 3517 3518 
3519 3520 3521 3522 3523 3524 3525 3526 3527 
3528 3529 3530 3531 3532 3533 3534 3535 3536 
3537 3538 3539 3540 3541 3542 3543 3544 3545 
3546 3547 3548 3549 3550 3551 3552 3553 3554 
3555 3556 3557 3558 3559 3560 3561 3562 3563 
3564 3565 3566 3567 3568 3569 3570 3571 3572 
3573 3574 3575 3576 3577 3578 3579 3580 3581 
3582 3583 3584 3585 3586 3587 3588 3589 3590 
3591 3592 3593 3594 3595 3596 3597 3598 3599 
3600 3601 3602 3603 3604 3605 3606 3607 3608 
3609 3610 3611 3612 3613 3614 3615 3616 3617 
3618 3619 3620 3621 3622 3623 3624 3625 3626 
3627 3628 3629 3630 3631 3632 3633 3634 3635 
3636 3637 3638 3639 3640 3641 3642 3643 3644 
3645 3646 3647 3648 3649 3650 3651 3652 3653 
3654 3655 3656 3657 3658 3659 3660 3661 3662 
3663 3664 3665 3666 3667 3668 3669 3670 3671 
3672 3673 3674 3675 3676 3677 3678 3679 3680 
3681 3682 3683 3684 3685 3686 3687 3688 3689 
3690 3691 3692 3693 3694 3695 3696 3697 3698 
3699 3700 3701 3702 3703 3704 3705 3706 3707 
3708 3709 3710 3711 3712 3713 3714 3715 3716 
3717 3718 3719 3720 3721 3722 3723 3724 3725 
3726 3727 3728 3729 3730 3731 3732 3733 3734 
3735 3736 3737 3738 3739 3740 3741 3742 3743 
3744 3745 3746 3747 3748 3749 3750 3751 3752 
3753 3754 3755 3756 3757 3758 3759 3760 3761 
3762 3763 3764 3765 3766 3767 3768 3769 3770 
3771 3772 3773 3774 3775 3776 3777 3778 3779 
3780 3781 3782 3783 3784 3785 3786 3787 3788 
3789 3790 3791 3792 3793 3794 3795 3796 3797 
3798 3799 3800 3801 3802 3803 3804 3805 3806 
3807 3808 3809 3810 3811 3812 3813 3814 3815 
3816 3817 3818 3819 3820 3821 3822 3823 3824 
3825 3826 3827 3828 3829 3830 3831 3832 3833 
3834 3835 3836 3837 3838 3839 3840 3841 3842 
3843 3844 3845 3846 3847 3848 3849 3850 3851 
3852 3853 3854 3855 3856 3857 3858 3859 3860 
3861 3862 3863 3864 3865 3866 3867 3868 3869 
3870 3871 3872 3873 3874 3875 3876 3877 3878 
3879 3880 3881 3882 3883 3884 3885 3886 3887 
3888 3889 3890 3891 3892 3893 3894 3895 3896 
3897 3898 3899 3900 3901 3902 3903 3904 3905 
3906 3907 3908 3909 3910 3911 3912 3913 3914 
3915 3916 3917 3918 3919 3920 3921 3922 3923 
3924 3925 3926 3927 3928 3929 3930 3931 3932 
3933 3934 3935 3936 3937 3938 3939 3940 3941 
3942 3943 3944 3945 3946 3947 3948 3949 3950 
3951 3952 3953 3954 3955 3956 3957 3958 3959 
3960 3961 3962 3963 3964 3965 3966 3967 3968 
3969 3970 3971 3972 3973 3974 3975 3976 3977 
3978 3979 3980 3981 3982 3983 3984 3985 3986 
3987 3988 3989 3990 3991 3992 3993 3994 3995 
3996 3997 3998 3999 4000 4001 4002 4003 4004 
4005 4006 4007 4008 4009 4010 4011 4012 4013 
4014 4015 4016 4017 4018 4019 4020 4021 4022 
4023 4024 4025 4026 4027 4028 4029 4030 4031 
4032 4033 4034 4035 4036 4037 4038 4039 4040 
4041 4042 4043 4044 4045 4046 4047 4048 4049 
4050 4051 4052 4053 4054 4055 4056 4057 4058 
4059 4060 4061 4062 4063 4064 4065 4066 4067 
4068 4069 4070 4071 4072 4073 4074 4075 4076 
4077 4078 4079 4080 4081 4082 4083 4084 4085 
4086 4087 4088 4089 4090 4091 4092 4093 4094 
4095 4096 4097 4098 4099 4100 4101 4102 4103 
4104 4105 4106 4107 4108 4109 4110 4111 4112 
4113 4114 4115 4116 4117 4118 4119 4120 4121 
4122 4123 4124 4125 4126 4127 4128 4129 4130 
4131 4132 4133 4134 4135 4136 4137 4138 4139 
4140 4141 4142 4143 4144 4145 4146 4147 4148 
4149 4150 4151 4152 4153 4154 4155 4156 4157 
4158 4159 4160 4161 4162 4163 4164 4165 4166 
4167 4168 4169 4170 4171 4172 4173 4174 4175 
4176 4177 4178 4179 4180 4181 4182 4183 4184 
4185 4186 4187 4188 4189 4190 4191 4192 4193 
4194 4195 4196 4197 4198 4199 4200 4201 4202 
4203 4204 4205 4206 4207 4208 4209 4210 4211 
4212 4213 4214 4215 4216 4217 4218 4219 4220 
4221 4222 4223 4224 4225 4226 4227 4228 4229 
4230 4231 4232 4233 4234 4235 4236 4237 4238 
4239 4240 4241 4242 4243 4244 4245 4246 4247 
4248 4249 4250 4251 4252 4253 4254 4255 4256 
4257 4258 4259 4260 4261 4262 4263 4264 4265 
4266 4267 4268 4269 4270 4271 4272 4273 4274 
4275 4276 4277 4278 4279 4280 4281 4282 4283 
4284 4285 4286 4287 4288 4289 4290 4291 4292 
4293 4294 4295 4296 4297 4298 4299 4300 4301 
4302 4303 4304 4305 4306 4307 4308 4309 4310 
4311 4312 4313 4314 4315 4316 4317 4318 4319 
4320 4321 4322 4323 4324 4325 4326 4327 4328 
4329 4330 4331 4332 4333 4334 4335 4336 4337 
4338 4339 4340 4341 4342 4343 4344 4345 4346 
4347 4348 4349 4350 4351 4352 4353 4354 4355 
4356 4357 4358 4359 4360 4361 4362 4363 4364 
4365 4366 4367 4368 4369 4370 4371 4372 4373 
4374 4375 4376 4377 4378 4379 4380 4381 4382 
4383 4384 4385 4386 4387 4388 4389 4390 4391 
4392 4393 4394 4395 4396 4397 4398 4399 4400 
4401 4402 4403 4404 4405 4406 4407 4408 4409 
4410 4411 4412 4413 4414 4415 4416 4417 4418 
4419 4420 4421 4422 4423 4424 4425 4426 4427 
4428 4429 4430 4431 4432 4433 4434 4435 4436 
4437 4438 4439 4440 4441 4442 4443 4444 4445 
4446 4447 4448 4449 4450 4451 4452 4453 4454 
4455 4456 4457 4458 4459 4460 4461 4462 4463 
4464 4465 4466 4467 4468 4469 4470 4471 4472 
4473 4474 4475 4476 4477 4478 4479 4480 4481 
4482 4483 4484 4485 4486 4487 4488 4489 4490 
4491 4492 4493 4494 4495 4496 4497 4498 4499 
4500 4501 4502 4503 4504 4505 4506 4507 4508 
4509 4510 4511 4512 4513 4514 4515 4516 4517 
4518 4519 4520 4521 4522 4523 4524 4525 4526 
4527 4528 4529 4530 4531 4532 4533 4534 4535 
4536 4537 4538 4539 4540 4541 4542 4543 4544 
4545 4546 4547 4548 4549 4550 4551 4552 4553 
4554 4555 4556 4557 4558 4559 4560 4561 4562 
4563 4564 4565 4566 4567 4568 4569 4570 4571 
4572 4573 4574 4575 4576 4577 4578 4579 4580 
4581 4582 4583 4584 4585 4586 4587 4588 4589 
4590 4591 4592 4593 4594 4595 4596 4597 4598 
4599 4600 4601 4602 4603 4604 4605 4606 4607 
4608 4609 4610 4611 4612 4613 4614 4615 4616 
4617 4618 4619 4620 4621 4622 4623 4624 4625 
4626 4627 4628 4629 4630 4631 4632 4633 4634 
4635 4636 4637 4638 4639 4640 4641 4642 4643 
4644 4645 4646 4647 4648 4649 4650 4651 4652 
4653 4654 4655 4656 4657 4658 4659 4660 4661 
4662 4663 4664 4665 4666 4667 4668 4669 4670 
4671 4672 4673 4674 4675 4676 4677 4678 4679 
4680 4681 4682 4683 4684 4685 4686 4687 4688 
4689 4690 4691 4692 4693 4694 4695 4696 4697 
4698 4699 4700 4701 4702 4703 4704 4705 4706 
4707 4708 4709 4710 4711 4712 4713 4714 4715 
4716 4717 4718 4719 4720 4721 4722 4723 4724 
4725 4726 4727 4728 4729 4730 4731 4732 4733 
4734 4735 4736 4737 4738 4739 4740 4741 4742 
4743 4744 4745 4746 4747 4748 4749 4750 4751 
4752 4753 4754 4755 4756 4757 4758 4759 4760 
4761 4762 4763 4764 4765 4766 4767 4768 4769 
4770 4771 4772 4773 4774 4775 4776 4777 4778 
4779 4780 4781 4782 4783 4784 4785 4786 4787 
4788 4789 4790 4791 4792 4793 4794 4795 4796 
4797 4798 4799 4800 4801 4802 4803 4804 4805 
4806 4807 4808 4809 4810 4811 4812 4813 4814 
4815 4816 4817 4818 4819 4820 4821 4822 4823 
4824 4825 4826 4827 4828 4829 4830 4831 4832 
4833 4834 4835 4836 4837 4838 4839 4840 4841 
4842 4843 4844 4845 4846 4847 4848 4849 4850 
4851 4852 4853 4854 4855 4856 4857 4858 4859 
4860 4861 4862 4863 4864 4865 4866 4867 4868 
4869 4870 4871 4872 4873 4874 4875 4876 4877 
4878 4879 4880 4881 4882 4883 4884 4885 4886 
4887 4888 4889 4890 4891 4892 4893 4894 4895 
4896 4897 4898 4899 4900 4901 4902 4903 4904 
4905 4906 4907 4908 4909 4910 4911 4912 4913 
4914 4915 4916 4917 4918 4919 4920 4921 4922 
4923 4924 4925 4926 4927 4928 4929 4930 4931 
4932 4933 4934 4935 4936 4937 4938 4939 4940 
4941 4942 4943 4944 4945 4946 4947 4948 4949 
4950 4951 4952 4953 4954 4955 4956 4957 4958 
4959 4960 4961 4962 4963 4964 4965 4966 4967 
4968 4969 4970 4971 4972 4973 4974 4975 4976 
4977 4978 4979 4980 4981 4982 4983 4984 4985 
4986 4987 4988 4989 4990 4991 4992 4993 4994 
4995 4996 4997 4998 4999 5000 5001 5002 5003 
5004 5005 5006 5007 5008 5009 5010 5011 5012 
5013 5014 5015 5016 5017 5018 5019 5020 5021 
5022 5023 5024 5025 5026 5027 5028 5029 5030 
5031 5032 5033 5034 5035 5036 5037 5038 5039 
5040 5041 5042 5043 5044 5045 5046 5047 5048 
5049 5050 5051 5052 5053 5054 5055 5056 5057 
5058 5059 5060 5061 5062 5063 5064 5065 5066 
5067 5068 5069 5070 5071 5072 5073 5074 5075 
5076 5077 5078 5079 5080 5081 5082 5083 5084 
5085 5086 5087 5088 5089 5090 5091 5092 5093 
5094 5095 5096 5097 5098 5099 5100 5101 5102 
5103 5104 5105 5106 5107 5108 5109 5110 5111 
5112 5113 5114 5115 5116 5117 5118 5119 5120 
5121 5122 5123 5124 5125 5126 5127 5128 5129 
5130 5131 5132 5133 5134 5135 5136 5137 5138 
5139 5140 5141 5142 5143 5144 5145 5146 5147 
5148 5149 5150 5151 5152 5153 5154 5155 5156 
5157 5158 5159 5160 5161 5162 5163 5164 5165 
5166 5167 5168 5169 5170 5171 5172 5173 5174 
5175 5176 5177 5178 5179 5180 5181 5182 5183 
5184 5185 5186 5187 5188 5189 5190 5191 5192 
5193 5194 5195 5196 5197 5198 5199 5200 5201 
5202 5203 5204 5205 5206 5207 5208 5209 5210 
5211 5212 5213 5214 5215 5216 5217 5218 5219 
5220 5221 5222 5223 5224 5225 5226 5227 5228 
5229 5230 5231 5232 5233 5234 5235 5236 5237 
5238 5239 5240 5241 5242 5243 5244 5245 5246 
5247 5248 5249 5250 5251 5252 5253 5254 5255 
5256 5257 5258 5259 5260 5261 5262 5263 5264 
5265 5266 5267 5268 5269 5270 5271 5272 5273 
5274 5275 5276 5277 5278 5279 5280 5281 5282 
5283 5284 5285 5286 5287 5288 5289 5290 5291 
5292 5293 5294 5295 5296 5297 5298 5299 5300 
5301 5302 5303 5304 5305 5306 5307 5308 5309 
5310 5311 5312 5313 5314 5315 5316 5317 5318 
5319 5320 5321 5322 5323 5324 5325 5326 5327 
5328 5329 5330 5331 5332 5333 5334 5335 5336 
5337 5338 5339 5340 5341 5342 5343 5344 5345 
5346 5347 5348 5349 5350 5351 5352 5353 5354 
5355 5356 5357 5358 5359 5360 5361 5362 5363 
5364 5365 5366 5367 5368 5369 5370 5371 5372 
5373 5374 5375 5376 5377 5378 5379 5380 5381 
5382 5383 5384 5385 5386 5387 5388 5389 5390 
5391 5392 5393 5394 5395 5396 5397 5398 5399 
5400 5401 5402 5403 5404 5405 5406 5407 5408 
5409 5410 5411 5412 5413 5414 5415 5416 5417 
5418 5419 5420 5421 5422 5423 5424 5425 5426 
5427 5428 5429 5430 5431 5432 5433 5434 5435 
5436 5437 5438 5439 5440 5441 5442 5443 5444 
5445 5446 5447 5448 5449 5450 5451 5452 5453 
5454 5455 5456 5457 5458 5459 5460 5461 5462 
5463 5464 5465 5466 5467 5468 5469 5470 5471 
5472 5473 5474 5475 5476 5477 5478 5479 5480 
5481 5482 5483 5484 5485 5486 5487 5488 5489 
5490 5491 5492 5493 5494 5495 5496 5497 5498 
5499 5500 5501 5502 5503 5504 5505 5506 5507 
5508 5509 5510 5511 5512 5513 5514 5515 5516 
5517 5518 5519 5520 5521 5522 5523 5524 5525 
5526 5527 5528 5529 5530 5531 5532 5533 5534 
5535 5536 5537 5538 5539 5540 5541 5542 5543 
5544 5545 5546 5547 5548 5549 5550 5551 5552 
5553 5554 5555 5556 5557 5558 5559 5560 5561 
5562 5563 5564 5565 5566 5567 5568 5569 5570 
5571 5572 5573 5574 5575 5576 5577 5578 5579 
5580 5581 5582 5583 5584 5585 5586 5587 5588 
5589 5590 5591 5592 5593 5594 5595 5596 5597 
5598 5599 5600 5601 5602 5603 5604 5605 5606 
5607 5608 5609 5610 5611 5612 5613 5614 5615 
5616 5617 5618 5619 5620 5621 5622 5623 5624 
5625 5626 5627 5628 5629 5630 5631 5632 5633 
5634 5635 5636 5637 5638 5639 5640 5641 5642 
5643 5644 5645 5646 5647 5648 5649 5650 5651 
5652 5653 5654 5655 5656 5657 5658 5659 5660 
5661 5662 5663 5664 5665 5666 5667 5668 5669 
5670 5671 5672 5673 5674 5675 5676 5677 5678 
5679 5680 5681 5682 5683 5684 5685 5686 5687 
5688 5689 5690 5691 5692 5693 5694 5695 5696 
5697 5698 5699 5700 5701 5702 5703 5704 5705 
5706 5707 5708 5709 5710 5711 5712 5713 5714 
5715 5716 5717 5718 5719 5720 5721 5722 5723 
5724 5725 5726 5727 5728 5729 5730 5731 5732 
5733 5734 5735 5736 5737 5738 5739 5740 5741 
5742 5743 5744 5745 5746 5747 5748 5749 5750 
5751 5752 5753 5754 5755 5756 5757 5758 5759 
5760 5761 5762 5763 5764 5765 5766 5767 5768 
5769 5770 5771 5772 5773 5774 5775 5776 5777 
5778 5779 5780 5781 5782 5783 5784 5785 5786 
5787 5788 5789 5790 5791 5792 5793 5794 5795 
5796 5797 5798 5799 5800 5801 5802 5803 5804 
5805 5806 5807 5808 5809 5810 5811 5812 5813 
5814 5815 5816 5817 5818 5819 5820 5821 5822 
5823 5824 5825 5826 5827 5828 5829 5830 5831 
5832 5833 5834 5835 5836 5837 5838 5839 5840 
5841 5842 5843 5844 5845 5846 5847 5848 5849 
5850 5851 5852 5853 5854 5855 5856 5857 5858 
5859 5860 5861 5862 5863 5864 5865 5866 5867 
5868 5869 5870 5871 5872 5873 5874 5875 5876 
5877 5878 5879 5880 5881 5882 5883 5884 5885 
5886 5887 5888 5889 5890 5891 5892 5893 5894 
5895 5896 5897 5898 5899 5900 5901 5902 5903 
5904 5905 5906 5907 5908 5909 5910 5911 5912 
5913 5914 5915 5916 5917 5918 5919 5920 5921 
5922 5923 5924 5925 5926 5927 5928 5929 5930 
5931 5932 5933 5934 5935 5936 5937 5938 5939 
5940 5941 5942 5943 5944 5945 5946 5947 5948 
5949 5950 5951 5952 5953 5954 5955 5956 5957 
5958 5959 5960 5961 5962 5963 5964 5965 5966 
5967 5968 5969 5970 5971 5972 5973 5974 5975 
5976 5977 5978 5979 5980 5981 5982 5983 5984 
5985 5986 5987 5988 5989 5990 5991 5992 5993 
5994 5995 5996 5997 5998 5999 6000 6001 6002 
6003 6004 6005 6006 6007 6008 6009 6010 6011 
6012 6013 6014 6015 6016 6017 6018 6019 6020 
6021 6022 6023 6024 6025 6026 6027 6028 6029 
6030 6031 6032 6033 6034 6035 6036 6037 6038 
6039 6040 6041 6042 6043 6044 6045 6046 6047 
6048 6049 6050 6051 6052 6053 6054 6055 6056 
6057 6058 6059 6060 6061 6062 6063 6064 6065 
6066 6067 6068 6069 6070 6071 6072 6073 6074 
6075 6076 6077 6078 6079 6080 6081 6082 6083 
6084 6085 6086 6087 6088 6089 6090 6091 6092 
6093 6094 6095 6096 6097 6098 6099 6100 6101 

CELL_DATA 2034
FIELD FieldData 2
normal_stress_average 1 2034 double
0 89.785832761 2.5469705929 81.48931334 39.870220384 37.052746156 23.843936925 12.603703347 9.3422467162 
13.837496967 44.181238335 12.361442036 13.312482866 70.98331186 6.0572114908 69.83840875 87.238345407 0 
0 42.518260754 4.8527641307 96.889015474 96.862735111 0 41.163088558 27.73806028 68.326032341 
0 8.1833074898 17.696037862 21.843917926 105.41617229 52.469209633 39.447722317 48.991645679 33.578061046 
15.521325872 4.7957568369 76.183974614 109.81106134 19.054600478 1.2693046393 41.787740803 8.5874645335 10.429634698 
8.8078508972 64.911397977 12.805729637 4.7958724731 10.821481346 12.899596666 75.811703936 37.664184178 4.7708526875 
12.417494858 14.434945448 7.8396094673 5.2807648394 87.468899675 19.134057486 75.280732421 22.319166089 1.7219296992 
92.616278933 37.529653072 53.421910297 52.12693588 4.3159811878 7.975695454 0 11.185011248 40.675026276 
3.834608268 63.095015092 52.386672123 0 70.620108164 8.9083675511 0.92075698961 0 61.656084671 
79.056589523 84.355252546 56.759807667 3.1907386678 104.58044522 4.8032783796 16.832358645 77.781642077 66.952247522 
82.06278674 59.05943251 -0 63.112309507 -0 25.988801492 115.00289992 3.6110132413 66.645894622 
94.181006492 80.722509646 -0 60.068956292 62.773629471 0 59.738909467 132.69816336 57.318471837 
-0 30.607454967 63.96205665 0 88.817593787 93.425590825 0 14.794262622 0 
0 -0 0 0 -0 0 104.16367586 0 54.513865272 
-0 0 -0 0 52.476933481 0 80.489621643 9.2911849039 81.694663816 
106.68687799 0 77.654215551 0 0 0 0 0 0 
9.2287361029 0 52.832577129 0 0 0 0 41.811407009 0 
1.6274593288 56.772761264 83.203342629 0 0 72.796064362 97.659724312 81.789991874 0 
50.314306826 63.567524228 4.5152394366 0 49.77037413 67.802008913 0 78.596434336 80.731415422 
0 83.94331957 92.475528237 48.162695924 0 0 -0 0 -0 
-0 58.696615974 80.908050956 0 0 93.807781124 0 0 0 
0 0 0 81.623281326 0 63.324454929 0 19.947977063 0 
0 92.431649874 0.23810047497 68.84351325 109.19906953 25.110804475 0 56.018316654 58.331401656 
0 76.958038352 0 88.65379258 69.508330536 86.93045041 65.757525814 84.725948198 82.265672922 
70.023840148 0 0 0 57.928014874 86.783872748 0 0 0 
64.625775992 0 36.370208527 81.213937341 0 13.063885751 56.072930029 0 48.774312386 
63.177741912 0 85.0789386 68.936785833 0 0 33.318424592 78.434921156 139.17292791 
0 0 75.868309027 0 0 63.964624155 0 0 0 
0 0 107.75871146 0 83.710321055 45.661550069 80.339076975 0 66.287471754 
-0 -0 62.893294732 57.510975117 0 77.989069224 51.91125897 0 91.252279554 
-0 37.960196538 71.977817214 85.423714548 102.94648001 0 95.19581443 0 0 
80.117009577 58.196852406 0 69.442007046 119.65578283 83.932716631 0 39.850894114 0 
0 0 70.299433007 0 0 51.482764028 66.210254751 0 25.297484932 
162.4747901 0 0 0 0 0 85.960998762 0 66.203275034 
71.302941392 0 0 0 86.994783902 98.027617064 70.485547403 87.691035509 0 
57.485110099 0 76.321028197 51.491893238 0 49.540623221 106.85090507 39.465733361 44.26546539 
0 97.304297638 97.738553274 99.191911058 45.016908579 40.510910133 89.67823737 92.362546545 33.17636849 
0 100.67333257 106.45345304 0 45.971760394 71.629782357 64.817819201 0 40.788835091 
103.0865796 0 0 0 95.361503394 105.51028481 45.74819943 74.866187123 -0 
62.581073792 91.175597399 19.397423944 0 26.008951538 37.908840746 0 77.994983349 62.924188314 
55.61348162 86.143867988 0 107.10978846 106.68950684 -0 0 79.113955827 84.050906314 
55.493649881 -0 0.48965100155 0 0 62.056734983 39.763569624 44.881544623 100.40009655 
45.081439001 0 44.800663988 40.717082528 0 0 87.74528593 76.421754557 55.701834479 
0 79.216152136 66.448946105 0 37.511808324 0 115.37593044 0 0 
0 0 74.894736087 45.693738587 0 0 -0 72.957180613 -0 
54.821165938 61.17931379 98.660520383 47.546361447 115.74722992 41.759746373 57.674296891 44.476167015 32.915062012 
101.3124887 59.432430736 0 46.490307359 60.878404533 71.239656138 21.739849059 86.928866398 72.471728262 
83.792902014 48.322297984 67.019561778 28.048306576 0 66.377584251 78.30036074 87.371881796 107.74109258 
0 56.626350911 53.79578175 -0 77.877048831 81.2652476 84.869544746 78.916693662 0 
0 0 66.399738993 103.38530965 -0 16.237671438 0 0 88.678265794 
-0 94.668514325 0 0 66.518142186 -0 0 68.13912274 75.310828193 
40.079499195 90.135430873 30.173482637 57.341030292 103.17609785 0 42.036236875 104.62805611 65.101840267 
0 32.329472345 66.399801764 72.002975311 148.74588508 68.590398163 46.294482438 0 91.781204183 
77.28789754 75.916835932 0 0 29.255064542 99.459914068 87.792629606 86.758644928 64.82753234 
43.750143119 88.254681444 30.229059995 142.94771543 0 0 75.951088419 50.787491083 100.72483064 
55.596067953 96.851976154 0 72.104029488 98.529393604 45.240503643 60.571058635 79.306871493 76.148548991 
89.499732017 0 0 0 0 89.163180285 32.389929459 0 38.907446966 
0 96.548115461 65.63187122 37.258861375 39.59980109 78.142145516 0 -0 0 
77.318348202 0 78.859567921 0 0 93.186154941 10.594622183 0 12.476329224 
0 0 -0 0 13.474716204 0 0 0 -0 
36.393039167 0 22.262188009 1.8188326213 25.087729268 14.04990492 0 0 12.37327568 
-0 -0 0 47.473118139 0 13.687786717 16.026733341 0 0 
46.285264499 11.219048541 49.247083681 0 23.77691472 0 27.518921952 0 35.832900398 
0 43.700547305 0 52.184064816 0 29.312134863 0 0 -0 
0 0 0 -0 0 0 0 -0 -0 
37.282400664 -0 0 0 0 0 17.772463453 -0 15.03856455 
0 -0 0 24.424296606 0 25.147835362 0 17.007911776 0 
0 19.395901375 0 5.649047661 17.90123092 17.279778782 0 0 0 
0 0 0 0 48.868686534 0 0 11.913980233 26.892396256 
66.372391904 0 35.432735798 0 -0 0 0 40.595869889 0 
20.921716749 2.0515986483 27.130855168 50.906579782 29.985282963 0 0 47.392607051 0 
10.256726067 45.307981532 16.437634663 44.009122976 15.81276135 25.334617567 39.856887784 0 0 
11.877164425 15.213130345 -0 45.641035798 0 0 0 25.542252015 0 
34.221690205 31.032110544 39.390597931 0 0 58.779442741 34.147267569 48.725966153 0 
50.481798107 25.122844543 25.127132357 28.98310662 34.051415271 0 40.172427185 27.203488701 31.409053461 
35.288838408 30.46287891 0 36.265080462 16.180771366 60.019291544 43.153943572 3.9953631181 1.4043857375 
0 0 0.10114191926 34.27086697 0 36.000886122 17.024476956 20.463537119 0 
56.406883635 10.947511155 24.231011573 13.357445109 -0 0 0 0 0 
38.107354368 0 0 0 0 0 0 48.44013979 0 
0 0 0 0 0 0 0 0 0 
0 -0 0 0 0 0 0 0 -0 
0 37.486882979 0 0 0 0 40.871856682 -0 15.365908012 
12.476264529 31.408563116 0 0 0 0 0 0 0 
-0 -0 0 0 0 22.870038588 44.653491597 0 0 
0 0 0 0 0 0 32.499695731 35.357257429 33.124841531 
40.734294724 0 0 0 0 0 -0 60.120770195 34.33658215 
58.074784915 0 0 0 0 0 0 0 0 
0 17.580119484 0 0 0 13.36801544 0 -0 0 
35.329688921 0 0 0 0 0 0 0 0 
11.605308031 0 0 0 0 0 0 0 0 
0 35.805339231 0 0 0 0 22.034573739 0 0 
0 0 0 0 0 0 0 0 54.873983916 
50.179858198 36.736911717 0 -0 0 0 41.152730327 0 0 
-0 0 0 0 0 -0 0 0 49.309674984 
-0 0 0 0 30.005137495 0 0 0 0 
0 0 0 0 0 0 0 0 0 
0 0 0 0 0 0 0 0 0 
0 0 0 0 0 0 0 0 0 
0 0 0 0 -0 0 0 0 0 
0 0 0 0 0 0 0 0 0 
0 0 0 0 0 0 0 0 0 
0 0 0 0 0 0 0 0 0 
0 0 0 0 0 0 0 0 0 
0 0 0 0 0 0 0 0 0 
0 0 0 0 0 0 0 0 0 
0 0 0 0 0 0 0 0 0 
0 0 0 0 0 0 0 0 0 
0 0 0 0 0 0 0 0 0 
0 0 0 0 0 0 0 0 0 
0 0 0 0 0 0 0 0 0 
0 0 0 0 0 0 0 0 0 
0 0 0 0 0 0 0 0 0 
0 0 0 0 0 0 0 0 0 
0 0 0 0 0 0 0 0 0 
-0 0 0 0 0 0 0 0 0 
-0 0 0 0 -0 0 0 0 0 
0 0 0 0 0 0 -0 0 0 
0 0 0 0 -0 0 0 0 0 
0 0 -0 0 0 0 0 0 0 
0 0 0 0 0 0 0 0 0 
0 0 0 0 0 0 0 0 0 
0 0 0 0 0 -0 0 0 0 
0 0 0 0 0 0 0 0 0 
0 0 0 0 0 0 0 0 0 
0 0 -0 0 0 0 0 0 0 
0 0 0 0 0 0 0 0 0 
0 0 0 -0 0 0 0 0 0 
0 0 0 0 0 0 0 0 0 
0 0 0 0 0 0 0 0 0 
0 0 0 0 0 0 0 0 0 
0 0 0 0 0 0 0 0 0 
0 0 0 0 0 0 0 0 0 
0 0 0 0 0 0 0 0 0 
0 0 0 0 0 0 0 0 -0 
0 0 0 -0 0 0 0 -0 -0 
0 0 0 0 0 0 0 0 0 
0 0 0 0 0 0 -0 0 0 
0 -0 0 0 0 -0 -0 0 0 
0 -0 0 -0 0 0 0 0 0 
0 0 0 0 0 0 0 0 0 
0 0 0 0 0 0 0 -0 0 
-0 0 0 0 -0 0 0 0 0 
0 -0 0 0 0 0 0 0 0 
0 0 0 -0 0 0 0 0 0 
0 0 0 0 0 0 0 0 0 
0 0 0 0 0 0 -0 0 0 
0 0 0 0 0 0 0 0 0 
0 0 0 0 0 -0 0 -0 0 
0 0 0 0 0 0 -0 0 0 
0 -0 0 0 0 0 -0 -0 0 
0 0 0 0 0 0 0 0 0 
0 0 0 0 0 -0 0 0 0 
0 0 0 0 0 0 0 0 0 
0 0 0 0 0 0 0 0 0 
0 0 0 0 0 0 0 0 0 
0 0 0 -0 0 0 0 0 0 
0 0 0 0 0 0 0 0 0 
0 0 0 0 0 0 0 -0 0 
-0 0 0 0 0 0 0 0 0 
-0 0 0 0 0 0 0 0 0 
0 -0 0 0 0 0 0 0 0 
0 0 0 0 0 0 0 0 -0 
-0 0 -0 0 -0 0 -0 -0 0 
0 0 0 0 -0 0 0 0 0 
0 0 0 0 0 -0 0 0 0 
0 -0 0 0 0 0 0 -0 0 
0 0 0 -0 0 0 0 -0 0 
-0 0 0 0 0 -0 0 0 0 
0 -0 0 0 0 0 0 0 0 
0 0 0 0 0 0 0 0 0 
0 0 0 0 0 0 0 0 -0 
0 0 0 0 0 0 -0 0 0 
0 0 0 0 0 -0 0 -0 0 
0 -0 0 0 0 0 0 0 0 
-0 0 0 0 -0 0 0 0 -0 
-0 -0 0 -0 0 0 0 0 0 
0 -0 0 -0 0 -0 0 -0 0 
0 0 0 -0 0 -0 0 -0 0 
-0 0 0 0 0 0 0 0 0 
-0 0 0 0 0 0 0 0 0 
0 0 0 0 0 0 0 0 0 
-0 -0 0 0 0 0 0 0 0 
0 0 -0 0 0 0 0 -0 0 
0 0 0 0 0 0 -0 0 0 
0 0 0 0 0 0 0 0 0 
0 0 0 -0 0 0 0 0 0 
0 0 0 0 0 -0 0 0 -0 
0 0 -0 0 0 0 0 0 0 
0 0 0 0 0 0 0 0 -0 
0 0 0 0 0 -0 0 0 0 
0 0 0 0 0 0 -0 0 -0 
0 0 0 0 0 0 0 0 0 
0 0 0 0 0 0 0 0 0 
0 0 0 -0 -0 0 0 0 0 
0 0 0 0 0 -0 0 -0 -0 
0 0 -0 0 0 0 -0 0 -0 
0 0 0 0 0 0 0 0 -0 
0 0 0 0 0 -0 0 -0 0 
0 0 0 0 0 0 0 0 0 
0 0 0 0 0 0 0 0 0 
0 0 0 0 0 0 0 0 0 
0 -0 0 0 0 0 0 -0 0 
0 -0 0 0 0 0 0 0 0 
0 0 0 0 0 0 0 -0 0 
0 0 0 0 0 0 0 0 0 
0 0 0 -0 0 0 0 0 0 
0 0 0 0 0 0 0 0 0 
0 0 0 0 0 -0 0 0 0 
0 0 0 0 0 0 0 0 0 
0 0 0 0 0 0 0 0 0 
0 0 0 0 0 0 0 0 0 
0 0 0 0 0 0 0 0 0 
0 0 0 0 0 0 0 0 0 
0 0 0 0 0 0 0 0 0 
0 0 0 0 0 0 0 0 0 
0 -0 0 0 0 0 0 0 -0 
0 0 0 0 -0 0 0 0 0 
0 -0 -0 0 0 0 -0 0 0 
0 0 0 0 0 0 0 0 0 
0 0 0 0 0 0 0 0 0 
0 0 0 0 0 0 0 0 0 
0 0 0 0 0 0 0 0 0 
0 0 0 0 0 0 0 0 0 
0 0 0 0 0 0 0 0 0 
-0 0 -0 0 0 -0 -0 0 0 
-0 -0 0 0 0 0 0 0 0 

shear_stress_average 1 2034 double
0 2.3710362679e-14 2.3182293544e-15 2.6209294077e-14 1.7191549346e-14 0 1.0436943515e-14 6.6427262994e-15 6.3281909384e-15 
8.2885390935e-15 1.2800272805e-14 6.0033511388e-15 7.1237372188e-15 2.2827606494e-14 1.1521473557e-15 0 0 0 
0 0 5.9524108189e-15 0 0 0 1.2462000089e-14 1.8170851056e-14 0 
0 9.2972269878e-15 5.0740387593e-15 1.1127011258e-14 0 0 0 0 8.6886495069e-15 
3.9600835757e-15 2.2603178961e-15 0 0 0 1.3517014078e-15 2.3075040592e-14 5.4665801863e-15 6.0069480299e-15 
3.6996772333e-15 0 4.7193461682e-15 3.8985092979e-15 3.9215080007e-15 1.5237692806e-14 0 0 1.9922458398e-15 
1.4845525051e-14 2.6206863731e-14 3.0471934997e-15 4.2256089659e-15 0 9.5596757288e-15 0 1.7894237265e-14 1.6310810054e-16 
0 0 1.774586827e-14 0 3.9557795393e-15 4.6243804308e-15 0 2.7199175713e-15 0 
1.6613665076e-15 0 0 0 0 5.8218315823e-15 1.5003404636e-15 0 1.8495710588e-14 
0 0 0 4.8445569433e-15 0 2.3342789582e-15 0 0 0 
0 0 0 1.8956624719e-14 0 4.5918502201e-14 0 6.0815972791e-15 0 
0 0 0 0 1.4170650365e-14 0 0 0 0 
0 0 0 0 0 0 0 3.4580073306e-14 0 
0 0 0 0 0 0 0 0 0 
0 0 0 0 0 0 0 3.4056491982e-15 0 
0 0 2.087030552e-14 0 0 0 0 0 0 
6.0817376652e-15 0 0 0 0 0 0 1.0210604922e-14 0 
9.8281569893e-16 0 0 0 0 2.0604433115e-14 0 0 0 
0 0 2.1844684275e-15 0 0 1.7622563676e-14 0 2.1501242305e-14 0 
0 0 0 0 0 0 0 0 0 
0 0 0 0 0 2.2872229535e-14 0 0 0 
0 0 0 0 0 1.733680222e-14 0 0 0 
0 0 3.2222734713e-17 0 0 0 0 0 1.9417920269e-14 
0 0 0 2.1657473056e-14 1.8521431133e-14 0 1.9306394034e-14 2.0897528573e-14 1.8891912802e-14 
0 0 0 0 0 0 0 0 0 
0 0 0 0 0 8.9870185003e-15 0 0 0 
0 0 0 2.1131255056e-14 0 0 0 0 0 
0 0 0 0 0 0 0 0 0 
0 0 0 0 2.1128481516e-14 0 2.1435163744e-14 0 0 
0 0 1.7345606044e-14 0 0 0 0 0 0 
0 0 0 0 2.9025490402e-14 0 0 0 0 
2.3650311975e-14 0 0 0 0 0 0 0 0 
0 0 0 0 0 0 0 0 0 
0 0 0 0 0 0 0 0 1.7767430767e-14 
0 0 0 0 0 2.8692344252e-14 0 2.074284075e-14 0 
0 0 1.8947264862e-14 0 0 0 0 0 1.0107973095e-14 
0 0 0 0 0 0 0 0 8.8310525459e-15 
0 3.2531284824e-14 3.2390414498e-14 0 1.0254539843e-14 0 1.7481972853e-14 0 0 
0 0 0 0 0 3.2840407925e-14 0 1.8937805668e-14 0 
0 0 0 0 0 0 0 0 0 
0 0 0 0 0 0 0 1.8978674436e-14 1.9737422636e-14 
0 0 1.874873279e-16 0 0 0 0 0 0 
0 0 0 1.0459461432e-14 0 0 0 0 0 
0 0 0 0 9.2847915676e-15 0 0 0 0 
0 0 0 0 0 0 0 0 0 
0 0 0 1.56421469e-14 3.3244085164e-14 0 0 0 0 
0 1.6587106086e-14 0 0 1.8172493048e-14 0 0 0 1.6826884291e-14 
0 1.5247143795e-14 0 8.4215612046e-15 0 0 0 2.0610652132e-14 3.3706855573e-14 
0 0 0 0 0 0 0 0 0 
0 0 0 3.2047704083e-14 0 0 0 0 0 
0 3.1070383738e-14 0 0 0 0 0 0 1.8652558887e-14 
9.500333353e-15 2.0332370075e-14 0 1.7158554398e-14 0 0 0 0 0 
0 0 1.7620376194e-14 0 0 0 0 0 0 
0 0 0 0 0 0 0 0 0 
0 0 0 4.3348256907e-14 0 0 0 0 2.9381838428e-14 
0 2.2617748003e-14 0 0 2.201047153e-14 0 0 0 2.1058176383e-14 
2.1915572773e-14 0 0 0 0 0 0 0 8.8946093814e-15 
0 0 0 0 0 0 0 0 0 
0 0 0 0 0 0 1.7207590571e-15 0 4.6608359361e-15 
0 0 0 0 1.8299888324e-14 0 0 0 0 
1.1771794669e-14 0 7.867400396e-15 1.8022025878e-15 4.710923876e-15 2.8963136191e-15 0 0 2.5089736796e-15 
0 0 0 3.8120326836e-14 0 1.148696879e-15 1.204401319e-14 0 0 
1.0473155984e-14 7.6409023181e-15 1.1503143727e-13 0 7.0745627827e-15 0 7.5130765138e-15 0 2.2744269432e-14 
0 1.5887741475e-14 0 1.2352064378e-14 0 3.1786440548e-14 0 0 0 
0 0 0 0 0 0 0 0 0 
2.3882917816e-14 0 0 0 0 0 1.2030590104e-14 0 1.8784381433e-14 
0 0 0 2.2926102307e-14 0 1.5177299377e-14 0 8.3680383433e-15 0 
0 3.4885344761e-14 0 1.9612266019e-15 1.7519550818e-14 1.6318387126e-14 0 0 0 
0 0 0 0 4.7417682958e-14 0 0 1.3222228548e-14 8.3435436417e-15 
6.9351594039e-15 0 2.8548194794e-14 0 0 0 0 1.7811770468e-14 0 
1.5484825049e-14 7.0224761071e-15 1.5864173197e-14 7.0669222379e-15 1.8736860166e-15 0 0 5.6881719807e-15 0 
2.3316397338e-15 9.5457337547e-15 1.09732159e-14 1.4370328303e-14 3.1879514312e-15 9.569643204e-15 2.5224057012e-14 0 0 
1.4421467075e-15 3.0714034091e-15 0 6.3194728412e-15 0 0 0 4.7540411775e-15 0 
3.9391616805e-15 5.7550967099e-15 5.405978006e-15 0 0 1.5876725007e-14 3.1687131701e-14 1.9018229544e-14 0 
4.2565302562e-14 2.8395880508e-14 2.6974752092e-14 0.063078434361 3.2399136082e-14 0 2.0716871689e-14 5.9052811771e-14 1.515380046e-14 
1.4700849258e-14 1.3600547407e-14 0 4.1574772797e-14 6.4891946795e-15 5.2667792947e-14 4.8652421207e-15 3.0223896975e-15 1.5857526695e-15 
0 0 3.5267059818e-17 1.1216842839e-14 0 8.4483300879e-15 7.8218468891e-15 7.8809918198e-15 0 
0.069249652769 3.2959408755e-15 4.3121301929e-15 2.980315774e-15 0 0 0 0 0 
5.9320817399e-14 0 0 0 0 0 0 6.5448551499e-15 0 
0 0 0 0 0 0 0 0 0 
0 0 0 0 0 0 0 0 0 
0 2.215393328e-14 0 0 0 0 2.6652931082e-14 0 4.6691193701e-15 
8.3211098478e-15 9.4857256185e-15 0 0 0 0 0 0 0 
0 0 0 0 0 1.0101895635e-14 9.843882568e-15 0 0 
0 0 0 0 0 0 1.4969683646e-14 1.4889470146e-14 5.9373641838e-15 
7.9802230167e-14 0 0 0 0 0 0 4.945517357e-14 1.644430701e-14 
7.0778336477e-15 0 0 0 0 0 0 0 0 
0 1.1872162431e-14 0 0 0 3.7922664979e-15 0 0 0 
9.2878327532e-15 0 0 0 0 0 0 0 0 
8.7832108124e-15 0 0 0 0 0 0 0 0 
0 1.1619628244e-14 0 0 0 0 1.5054850845e-14 0 0 
0 0 0 0 0 0 0 0 4.074226659e-14 
2.3092168229e-14 1.037704276e-14 0 0 0 0 4.3311980762e-15 0 0 
0 0 0 0 0 0 0 0 2.5898199173e-14 
0 0 0 0 1.8985869013e-14 0 0 0 0 
0 0 0 0 0 0 0 0 0 
0 0 0 0 0 0 0 0 0 
0 0 0 0 0 0 0 0 0 
0 0 0 0 0 0 0 0 0 
0 0 0 0 0 0 0 0 0 
0 0 0 0 0 0 0 0 0 
0 0 0 0 0 0 0 0 0 
0 0 0 0 0 0 0 0 0 
0 0 0 0 0 0 0 0 0 
0 0 0 0 0 0 0 0 0 
0 0 0 0 0 0 0 0 0 
0 0 0 0 0 0 0 0 0 
0 0 0 0 0 0 0 0 0 
0 0 0 0 0 0 0 0 0 
0 0 0 0 0 0 0 0 0 
0 0 0 0 0 0 0 0 0 
0 0 0 0 0 0 0 0 0 
0 0 0 0 0 0 0 0 0 
0 0 0 0 0 0 0 0 0 
0 0 0 0 0 0 0 0 0 
0 0 0 0 0 0 0 0 0 
0 0 0 0 0 0 0 0 0 
0 0 0 0 0 0 0 0 0 
0 0 0 0 0 0 0 0 0 
0 0 0 0 0 0 0 0 0 
0 0 0 0 0 0 0 0 0 
0 0 0 0 0 0 0 0 0 
0 0 0 0 0 0 0 0 0 
0 0 0 0 0 0 0 0 0 
0 0 0 0 0 0 0 0 0 
0 0 0 0 0 0 0 0 0 
0 0 0 0 0 0 0 0 0 
0 0 0 0 0 0 0 0 0 
0 0 0 0 0 0 0 0 0 
0 0 0 0 0 0 0 0 0 
0 0 0 0 0 0 0 0 0 
0 0 0 0 0 0 0 0 0 
0 0 0 0 0 0 0 0 0 
0 0 0 0 0 0 0 0 0 
0 0 0 0 0 0 0 0 0 
0 0 0 0 0 0 0 0 0 
0 0 0 0 0 0 0 0 0 
0 0 0 0 0 0 0 0 0 
0 0 0 0 0 0 0 0 0 
0 0 0 0 0 0 0 0 0 
0 0 0 0 0 0 0 0 0 
0 0 0 0 0 0 0 0 0 
0 0 0 0 0 0 0 0 0 
0 0 0 0 0 0 0 0 0 
0 0 0 0 0 0 0 0 0 
0 0 0 0 0 0 0 0 0 
0 0 0 0 0 0 0 0 0 
0 0 0 0 0 0 0 0 0 
0 0 0 0 0 0 0 0 0 
0 0 0 0 0 0 0 0 0 
0 0 0 0 0 0 0 0 0 
0 0 0 0 0 0 0 0 0 
0 0 0 0 0 0 0 0 0 
0 0 0 0 0 0 0 0 0 
0 0 0 0 0 0 0 0 0 
0 0 0 0 0 0 0 0 0 
0 0 0 0 0 0 0 0 0 
0 0 0 0 0 0 0 0 0 
0 0 0 0 0 0 0 0 0 
0 0 0 0 0 0 0 0 0 
0 0 0 0 0 0 0 0 0 
0 0 0 0 0 0 0 0 0 
0 0 0 0 0 0 0 0 0 
0 0 0 0 0 0 0 0 0 
0 0 0 0 0 0 0 0 0 
0 0 0 0 0 0 0 0 0 
0 0 0 0 0 0 0 0 0 
0 0 0 0 0 0 0 0 0 
0 0 0 0 0 0 0 0 0 
0 0 0 0 0 0 0 0 0 
0 0 0 0 0 0 0 0 0 
0 0 0 0 0 0 0 0 0 
0 0 0 0 0 0 0 0 0 
0 0 0 0 0 0 0 0 0 
0 0 0 0 0 0 0 0 0 
0 0 0 0 0 0 0 0 0 
0 0 0 0 0 0 0 0 0 
0 0 0 0 0 0 0 0 0 
0 0 0 0 0 0 0 0 0 
0 0 0 0 0 0 0 0 0 
0 0 0 0 0 0 0 0 0 
0 0 0 0 0 0 0 0 0 
0 0 0 0 0 0 0 0 0 
0 0 0 0 0 0 0 0 0 
0 0 0 0 0 0 0 0 0 
0 0 0 0 0 0 0 0 0 
0 0 0 0 0 0 0 0 0 
0 0 0 0 0 0 0 0 0 
0 0 0 0 0 0 0 0 0 
0 0 0 0 0 0 0 0 0 
0 0 0 0 0 0 0 0 0 
0 0 0 0 0 0 0 0 0 
0 0 0 0 0 0 0 0 0 
0 0 0 0 0 0 0 0 0 
0 0 0 0 0 0 0 0 0 
0 0 0 0 0 0 0 0 0 
0 0 0 0 0 0 0 0 0 
0 0 0 0 0 0 0 0 0 
0 0 0 0 0 0 0 0 0 
0 0 0 0 0 0 0 0 0 
0 0 0 0 0 0 0 0 0 
0 0 0 0 0 0 0 0 0 
0 0 0 0 0 0 0 0 0 
0 0 0 0 0 0 0 0 0 
0 0 0 0 0 0 0 0 0 
0 0 0 0 0 0 0 0 0 
0 0 0 0 0 0 0 0 0 
0 0 0 0 0 0 0 0 0 
0 0 0 0 0 0 0 0 0 
0 0 0 0 0 0 0 0 0 
0 0 0 0 0 0 0 0 0 
0 0 0 0 0 0 0 0 0 
0 0 0 0 0 0 0 0 0 
0 0 0 0 0 0 0 0 0 
0 0 0 0 0 0 0 0 0 
0 0 0 0 0 0 0 0 0 
0 0 0 0 0 0 0 0 0 
0 0 0 0 0 0 0 0 0 
0 0 0 0 0 0 0 0 0 
0 0 0 0 0 0 0 0 0 
0 0 0 0 0 0 0 0 0 
0 0 0 0 0 0 0 0 0 
0 0 0 0 0 0 0 0 0 
0 0 0 0 0 0 0 0 0 
0 0 0 0 0 0 0 0 0 
0 0 0 0 0 0 0 0 0 

