# vtk DataFile Version 5.1
Generated by LIGGGHTS
ASCII
DATASET POLYDATA
POINTS 6102 float
-0.0126937 0.0271821 0.018567 -0.0124321 0.0273028 0.0122857 -0.0165492 0.0250225 0.0162468 
-0.00809412 -0.0211818 0.00372368 -0.0122417 -0.0232057 0.00372368 -0.0123473 -0.0194528 0.00372368 
-0.0289079 0.00802077 0.0137396 -0.0273354 0.0123603 0.0120413 -0.0288894 0.00808717 0.0079903 
0.00844368 0.024816 0.00372368 0.0122843 0.0228125 0.00372368 0.00935195 0.0210524 0.00372368 
-0.0295908 -0.00493784 0.00372368 -0.0288725 -0.00814748 0.00858375 -0.0299026 -0.00241541 0.00776079 
-0.0122417 -0.0232057 0.00372368 -0.0159919 -0.0205249 0.00372368 -0.0123473 -0.0194528 0.00372368 
-0.0288894 0.00808717 0.0079903 -0.0273354 0.0123603 0.0120413 -0.0273757 0.0122708 0.00788605 
-0.0201231 0.02225 0.0128537 -0.0184264 0.0236742 0.0080134 -0.022056 0.0203355 0.00802677 
0.0120283 0.0274831 0.013095 0.0142805 0.0263831 0.00801425 0.00977164 0.028364 0.00800666 
0.0184264 0.0236742 0.0080134 0.0192678 0.0229946 0.0137266 0.0222062 0.0201714 0.0111275 
0.00475217 0.0262618 0.00372368 0.00844368 0.024816 0.00372368 0.0049706 0.0224562 0.00372368 
-0.0119911 -0.0274993 0.0129878 -0.0142657 -0.0263911 0.00801434 -0.00974487 -0.0283732 0.00801415 
0.000157307 -0.0299996 0.0110382 -0.00385588 -0.0297512 0.013628 -0.00493784 -0.0295908 0.0080134 
-0.00736456 0.029082 0.00372368 -0.00480389 0.0254027 0.00372368 -0.00875739 0.0254178 0.00372368 
0.0131895 -0.0269451 0.0135859 0.00963764 -0.0284098 0.010842 0.0142784 -0.0263842 0.0080134 
0.00756968 -0.0163985 0.00372368 0.0120396 -0.017547 0.00372368 0.00891473 -0.0202971 0.00372368 
-9.41575e-05 -0.0230183 0.00372368 0.00371169 -0.0256228 0.00372368 -0.000122576 -0.0268323 0.00372368 
0.0168138 -0.0248454 0.0160575 0.0201617 -0.022215 0.0122148 0.0201941 -0.0221856 0.0183604 
-0.00853274 0.028761 0.0162184 -0.0124321 0.0273028 0.0122857 -0.0126937 0.0271821 0.018567 
0.00371169 -0.0256228 0.00372368 0.00247738 -0.0298975 0.00372368 -0.000122576 -0.0268323 0.00372368 
-0.0192177 -0.0230365 0.0136558 -0.0220848 -0.0203042 0.0110766 -0.0184264 -0.0236742 0.0080134 
-0.0122417 -0.0232057 0.00372368 -0.00809412 -0.0211818 0.00372368 -0.00884013 -0.0252871 0.00372368 
-0.0120509 -0.0274732 0.00372368 -0.0122417 -0.0232057 0.00372368 -0.00884013 -0.0252871 0.00372368 
0.0201941 -0.0221856 0.0183604 0.0201617 -0.022215 0.0122148 0.0231666 -0.0190606 0.01603 
-0.00480389 0.0254027 0.00372368 -0.0076627 0.0219387 0.00372368 -0.00875739 0.0254178 0.00372368 
0.0222062 0.0201714 0.0111275 0.0220717 0.0203184 0.00711047 0.0184264 0.0236742 0.0080134 
-0.0263842 0.0142784 0.00372368 -0.0220227 0.0136092 0.00372368 -0.024489 0.0105266 0.00372368 
-0.0124321 0.0273028 0.0122857 -0.0164084 0.025115 0.0117569 -0.0165492 0.0250225 0.0162468 
-0.022056 0.0203355 0.00802677 -0.0228381 0.019453 0.0122199 -0.0201231 0.02225 0.0128537 
-0.0288725 -0.00814748 0.00858375 -0.0296896 -0.00430411 0.0117468 -0.0299026 -0.00241541 0.00776079 
-0.0283745 -0.00974098 0.00372368 -0.0288725 -0.00814748 0.00858375 -0.0295908 -0.00493784 0.00372368 
0.0123194 -0.0226331 0.00372368 0.00814478 -0.0242894 0.00372368 0.00891473 -0.0202971 0.00372368 
0.0113385 0.0181284 0.00372368 0.00649523 0.0189422 0.00372368 0.00935195 0.0210524 0.00372368 
0.0283745 0.00974098 0.00372368 0.0295908 0.00493784 0.00372368 0.0262923 0.00664646 0.00372368 
-0.0120509 0.0274732 0.00372368 -0.00736456 0.029082 0.00372368 -0.00875739 0.0254178 0.00372368 
0.0283745 0.00974098 0.00372368 0.0289467 0.00787963 0.0083766 0.0295908 0.00493784 0.00372368 
-0.00493784 -0.0295908 0.0080134 1.0107e-16 -0.03 0.00704273 0.000157307 -0.0299996 0.0110382 
0.00977164 0.028364 0.00800666 0.00701649 0.0291679 0.0118383 0.0120283 0.0274831 0.013095 
0.00247738 -0.0298975 0.00372368 -0.00247738 -0.0298975 0.00372368 -0.000122576 -0.0268323 0.00372368 
-0.00987953 -0.0164218 0.00372368 -0.00809412 -0.0211818 0.00372368 -0.0123473 -0.0194528 0.00372368 
0.00649523 0.0189422 0.00372368 0.0049706 0.0224562 0.00372368 0.00935195 0.0210524 0.00372368 
-0.025115 0.0164084 0.0080134 -0.0273354 0.0123603 0.0120413 -0.0253407 0.0160578 0.0138104 
0.00963764 -0.0284098 0.010842 0.00974098 -0.0283745 0.00688146 0.0142784 -0.0263842 0.0080134 
0.0120283 0.0274831 0.013095 0.0157587 0.0255277 0.0121769 0.0142805 0.0263831 0.00801425 
-0.0220848 -0.0203042 0.0110766 -0.0249482 -0.016661 0.0134522 -0.0250481 -0.0165103 0.00787589 
-0.0119911 -0.0274993 0.0129878 -0.0157145 -0.0255549 0.0120458 -0.0142657 -0.0263911 0.00801434 
0.00649523 0.0189422 0.00372368 0.00170261 0.0199253 0.00372368 0.0049706 0.0224562 0.00372368 
0.0289467 0.00787963 0.0083766 0.0297216 0.00407725 0.00768521 0.0295908 0.00493784 0.00372368 
-0.00461575 0.0296428 0.0137833 -0.000625354 0.0299935 0.0121126 -0.00490727 0.0295959 0.00814892 
0.0250538 0.0165017 0.00784534 0.0250351 0.0165301 0.013559 0.0272354 0.0125791 0.0112398 
-0.0220848 -0.0203042 0.0110766 -0.0220717 -0.0203184 0.00704838 -0.0184264 -0.0236742 0.0080134 
-0.0209022 0.00905108 0.00372368 -0.0247613 0.00595337 0.00372368 -0.024489 0.0105266 0.00372368 
0.0228419 0.00568166 0.00372368 0.0233864 0.0102056 0.00372368 0.0262923 0.00664646 0.00372368 
0.0250538 0.0165017 0.00784534 0.0222062 0.0201714 0.0111275 0.0250351 0.0165301 0.013559 
-0.00974487 -0.0283732 0.00801415 -0.00801402 -0.0289098 0.0120244 -0.0119911 -0.0274993 0.0129878 
-0.0201231 0.02225 0.0128537 -0.0164084 0.025115 0.0117569 -0.0184264 0.0236742 0.0080134 
-0.0249482 -0.016661 0.0134522 -0.0271708 -0.012718 0.0110803 -0.0250481 -0.0165103 0.00787589 
0.00489992 -0.0295971 0.0133315 0.000157307 -0.0299996 0.0110382 0.00493784 -0.0295908 0.0080134 
0.0254585 0.00211549 0.00372368 0.0228419 0.00568166 0.00372368 0.0262923 0.00664646 0.00372368 
0.00493784 -0.0295908 0.0080134 0.00963764 -0.0284098 0.010842 0.00489992 -0.0295971 0.0133315 
-0.03 -6.29394e-17 0.00372368 -0.0295908 0.00493784 0.00372368 -0.0269306 0.00213112 0.00372368 
-0.0273757 0.0122708 0.00788605 -0.0273354 0.0123603 0.0120413 -0.025115 0.0164084 0.0080134 
-0.0289079 0.00802077 0.0137396 -0.0288894 0.00808717 0.0079903 -0.0297561 0.00381799 0.0112549 
0.0049706 0.0224562 0.00372368 0.00844368 0.024816 0.00372368 0.00935195 0.0210524 0.00372368 
0.0157653 0.0203057 0.00372368 0.0190979 0.0173202 0.00372368 0.0151607 0.0162574 0.00372368 
0.0164084 0.025115 0.00372368 0.0157653 0.0203057 0.00372368 0.0122843 0.0228125 0.00372368 
-0.0230511 0.00103609 0.00372368 -0.026125 -0.00201284 0.00372368 -0.0269306 0.00213112 0.00372368 
-0.0253407 0.0160578 0.0138104 -0.0228381 0.019453 0.0122199 -0.025115 0.0164084 0.0080134 
0.0184264 0.0236742 0.0080134 0.0157587 0.0255277 0.0121769 0.0192678 0.0229946 0.0137266 
0.0168138 -0.0248454 0.0160575 0.0165149 -0.0250451 0.0116996 0.0201617 -0.022215 0.0122148 
-0.00490727 0.0295959 0.00814892 -0.000625354 0.0299935 0.0121126 -1.49662e-14 0.03 0.0080134 
-0.0076627 0.0219387 0.00372368 -0.0119049 0.0231923 0.00372368 -0.00875739 0.0254178 0.00372368 
-0.00490727 0.0295959 0.00814892 -0.00817694 0.0288641 0.0118199 -0.00461575 0.0296428 0.0137833 
0.0129972 -0.0046275 0.00372368 0.0164569 -0.00110475 0.00372368 0.0170352 -0.00513945 0.00372368 
-0.0263842 -0.0142784 0.00372368 -0.0283745 -0.00974098 0.00372368 -0.0244738 -0.0106783 0.00372368 
0.0288726 -0.00814691 0.0237607 0.0289195 -0.007979 0.0189527 0.0297176 -0.00410653 0.021341 
-0.00983278 0.0143111 0.00372368 -0.0143728 0.0156392 0.00372368 -0.0110301 0.0188699 0.00372368 
0.0295896 -0.00494546 0.0115477 0.0285006 -0.00936554 0.0118068 0.029082 -0.00736456 0.0080134 
0.0131895 -0.0269451 0.0135859 0.00919592 -0.0285558 0.0159589 0.00963764 -0.0284098 0.010842 
0.00963764 -0.0284098 0.010842 0.00919592 -0.0285558 0.0159589 0.00489992 -0.0295971 0.0133315 
-0.0252385 -0.00663486 0.00372368 -0.0295908 -0.00493784 0.00372368 -0.026125 -0.00201284 0.00372368 
-0.0283745 0.00974098 0.00372368 -0.0263842 0.0142784 0.00372368 -0.024489 0.0105266 0.00372368 
-0.00528641 -0.0174878 0.00372368 -0.000595274 -0.0186108 0.00372368 -0.0036895 -0.0211171 0.00372368 
0.0124538 0.0129968 0.00372368 0.0113385 0.0181284 0.00372368 0.0151607 0.0162574 0.00372368 
-0.0184264 -0.0236742 0.0080134 -0.0157145 -0.0255549 0.0120458 -0.0192177 -0.0230365 0.0136558 
-0.0186531 -0.000485601 0.00372368 -0.0175293 -0.00534917 0.00372368 -0.0219391 -0.00367156 0.00372368 
-0.00385588 -0.0297512 0.013628 -0.00801402 -0.0289098 0.0120244 -0.00493784 -0.0295908 0.0080134 
-0.00736456 -0.029082 0.00372368 -0.0120509 -0.0274732 0.00372368 -0.00884013 -0.0252871 0.00372368 
-0.0252385 -0.00663486 0.00372368 -0.0210329 -0.00857697 0.00372368 -0.0244738 -0.0106783 0.00372368 
-0.0210329 -0.00857697 0.00372368 -0.0210811 -0.013826 0.00372368 -0.0244738 -0.0106783 0.00372368 
-0.026125 -0.00201284 0.00372368 -0.03 -6.29394e-17 0.00372368 -0.0269306 0.00213112 0.00372368 
0.0159555 -0.0144888 0.00372368 0.015062 -0.00917333 0.00372368 0.0184672 -0.0112631 0.00372368 
-0.027085 -0.0128997 0.0211031 -0.0271198 -0.0128264 0.0160735 -0.0249489 -0.0166599 0.0185869 
-0.0120509 -0.0274732 0.00372368 -0.0164084 -0.025115 0.00372368 -0.0122417 -0.0232057 0.00372368 
-0.0249482 -0.016661 0.0134522 -0.0271198 -0.0128264 0.0160735 -0.0271708 -0.012718 0.0110803 
-0.0250481 -0.0165103 0.00787589 -0.0220717 -0.0203184 0.00704838 -0.0220848 -0.0203042 0.0110766 
-0.0119049 0.0231923 0.00372368 -0.0120509 0.0274732 0.00372368 -0.00875739 0.0254178 0.00372368 
0.0142784 -0.0263842 0.0080134 0.0165149 -0.0250451 0.0116996 0.0131895 -0.0269451 0.0135859 
-0.00247738 -0.0298975 0.00372368 -0.00437754 -0.0252867 0.00372368 -0.000122576 -0.0268323 0.00372368 
0.0295908 0.00493784 0.00372368 0.0254585 0.00211549 0.00372368 0.0262923 0.00664646 0.00372368 
0.0233864 0.0102056 0.00372368 0.0283745 0.00974098 0.00372368 0.0262923 0.00664646 0.00372368 
-0.0249489 -0.0166599 0.0185869 -0.0271198 -0.0128264 0.0160735 -0.0249482 -0.016661 0.0134522 
-0.0295908 0.00493784 0.00372368 -0.0247613 0.00595337 0.00372368 -0.0269306 0.00213112 0.00372368 
-0.0283745 -0.00974098 0.00372368 -0.0252385 -0.00663486 0.00372368 -0.0244738 -0.0106783 0.00372368 
-0.0286771 -0.00881029 0.0186488 -0.0271198 -0.0128264 0.0160735 -0.027085 -0.0128997 0.0211031 
-0.0210811 -0.013826 0.00372368 -0.0263842 -0.0142784 0.00372368 -0.0244738 -0.0106783 0.00372368 
-0.0219391 -0.00367156 0.00372368 -0.0252385 -0.00663486 0.00372368 -0.026125 -0.00201284 0.00372368 
-0.0295908 -0.00493784 0.00372368 -0.03 -6.29394e-17 0.00372368 -0.026125 -0.00201284 0.00372368 
-0.0286771 -0.00881029 0.0186488 -0.0287453 -0.00858536 0.0136414 -0.0271198 -0.0128264 0.0160735 
-0.0247613 0.00595337 0.00372368 -0.0283745 0.00974098 0.00372368 -0.024489 0.0105266 0.00372368 
-0.00306504 0.0210841 0.00372368 -0.0076627 0.0219387 0.00372368 -0.00480389 0.0254027 0.00372368 
0.0295896 -0.00494546 0.0115477 0.0290063 -0.00765723 0.0148584 0.0285006 -0.00936554 0.0118068 
-0.00437754 -0.0252867 0.00372368 -0.00736456 -0.029082 0.00372368 -0.00884013 -0.0252871 0.00372368 
-0.0164084 -0.025115 0.00372368 -0.0159919 -0.0205249 0.00372368 -0.0122417 -0.0232057 0.00372368 
0.0193501 0.0229254 0.0187378 0.0158958 0.0254425 0.0212311 0.0194104 0.0228744 0.023694 
0.0254329 -0.0159112 0.0137165 0.0230385 -0.0192153 0.0118296 0.0251416 -0.0163677 0.00809909 
0.015885 0.0254493 0.0163686 0.0193501 0.0229254 0.0187378 0.0192678 0.0229946 0.0137266 
-0.0249489 -0.0166599 0.0185869 -0.0249482 -0.016661 0.0134522 -0.0222638 -0.0201078 0.0161301 
-0.0222638 -0.0201078 0.0161301 -0.0222962 -0.0200718 0.0211075 -0.0249489 -0.0166599 0.0185869 
-0.0192 -0.0230512 0.018629 -0.0222962 -0.0200718 0.0211075 -0.0222638 -0.0201078 0.0161301 
-0.0286771 -0.00881029 0.0186488 -0.0296425 -0.00461751 0.016282 -0.0287453 -0.00858536 0.0136414 
-0.0192045 -0.0230475 0.0235981 -0.0222962 -0.0200718 0.0211075 -0.0192 -0.0230512 0.018629 
-0.0192045 -0.0230475 0.0235981 -0.0192 -0.0230512 0.018629 -0.0157275 -0.0255469 0.0210905 
0.00814478 -0.0242894 0.00372368 0.00736456 -0.029082 0.00372368 0.00371169 -0.0256228 0.00372368 
-0.0157275 -0.0255469 0.0210905 -0.0157219 -0.0255504 0.0260653 -0.0192045 -0.0230475 0.0235981 
-0.00437754 -0.0252867 0.00372368 -9.41575e-05 -0.0230183 0.00372368 -0.000122576 -0.0268323 0.00372368 
-0.0119139 -0.0275329 0.0235603 -0.0157219 -0.0255504 0.0260653 -0.0157275 -0.0255469 0.0210905 
-0.00247738 0.0298975 0.00372368 -1.49662e-14 0.03 0.0080134 0.00247738 0.0298975 0.00372368 
0.029082 -0.00736456 0.0080134 0.0274732 -0.0120509 0.0080134 0.0283745 -0.00974098 0.00372368 
-0.00493784 -0.0295908 0.0080134 -0.00974487 -0.0283732 0.00801415 -0.00736456 -0.029082 0.00372368 
0.00736456 -0.029082 0.00372368 0.00247738 -0.0298975 0.00372368 0.00371169 -0.0256228 0.00372368 
0.00800073 0.0289135 0.0212366 0.0121103 0.027447 0.0236855 0.0120559 0.027471 0.0186337 
0.00736456 0.029082 0.00372368 0.00844368 0.024816 0.00372368 0.00475217 0.0262618 0.00372368 
0.0251416 -0.0163677 0.00809909 0.0270287 -0.0130173 0.0114255 0.0254329 -0.0159112 0.0137165 
0.0120509 0.0274732 0.00372368 0.0164084 0.025115 0.00372368 0.0122843 0.0228125 0.00372368 
0.0190979 0.0173202 0.00372368 0.0236742 0.0184264 0.00372368 0.0220564 0.0145128 0.00372368 
0.0275305 -0.0119195 0.0210067 0.0289195 -0.007979 0.0189527 0.0288726 -0.00814691 0.0237607 
0.0203184 -0.0220717 0.00372368 0.0157279 -0.0202072 0.00372368 0.0193677 -0.0178292 0.00372368 
0.015885 0.0254493 0.0163686 0.0158958 0.0254425 0.0212311 0.0193501 0.0229254 0.0187378 
-0.0271198 -0.0128264 0.0160735 -0.0287453 -0.00858536 0.0136414 -0.0271708 -0.012718 0.0110803 
0.0131403 -0.0269691 0.0185532 0.00919592 -0.0285558 0.0159589 0.0131895 -0.0269451 0.0135859 
0.0164084 0.025115 0.00372368 0.0142805 0.0263831 0.00801425 0.0184264 0.0236742 0.0080134 
0.0250351 0.0165301 0.013559 0.0222062 0.0201714 0.0111275 0.0223805 0.0199779 0.0161807 
-0.00736456 -0.029082 0.00372368 -0.00974487 -0.0283732 0.00801415 -0.0120509 -0.0274732 0.00372368 
0.0287785 0.00847339 0.0136906 0.0289467 0.00787963 0.0083766 0.0272354 0.0125791 0.0112398 
-0.0159919 -0.0205249 0.00372368 -0.0203184 -0.0220717 0.00372368 -0.0192711 -0.0181234 0.00372368 
-0.0236742 -0.0184264 0.00372368 -0.0210811 -0.013826 0.00372368 -0.0192711 -0.0181234 0.00372368 
0.0250847 0.0164548 0.0186518 0.0250351 0.0165301 0.013559 0.0223805 0.0199779 0.0161807 
0.0256076 -0.0156285 0.0184942 0.0277133 -0.011488 0.0157469 0.0275305 -0.0119195 0.0210067 
0.0287604 0.00853449 0.0187072 0.0287785 0.00847339 0.0136906 0.0272154 0.0126222 0.0161736 
0.0283745 -0.00974098 0.00372368 0.0274732 -0.0120509 0.0080134 0.0263842 -0.0142784 0.00372368 
0.00247738 0.0298975 0.00372368 0.00736456 0.029082 0.00372368 0.00475217 0.0262618 0.00372368 
0.0296879 0.00431603 0.0162188 0.0287604 0.00853449 0.0187072 0.0296875 0.00431884 0.0212237 
0.0287785 0.00847339 0.0136906 0.0272354 0.0125791 0.0112398 0.0272154 0.0126222 0.0161736 
0.00844368 0.024816 0.00372368 0.0120509 0.0274732 0.00372368 0.0122843 0.0228125 0.00372368 
0.0236742 0.0184264 0.00372368 0.0263842 0.0142784 0.00372368 0.0220564 0.0145128 0.00372368 
0.00490989 -0.0295955 0.0184994 0.00919592 -0.0285558 0.0159589 0.00913157 -0.0285765 0.0210161 
0.0263842 -0.0142784 0.00372368 0.0251416 -0.0163677 0.00809909 0.0236742 -0.0184264 0.00372368 
-0.0189852 0.0170671 0.00372368 -0.0203184 0.0220717 0.00372368 -0.0155033 0.0203259 0.00372368 
-0.0164084 0.025115 0.00372368 -0.0119049 0.0231923 0.00372368 -0.0155033 0.0203259 0.00372368 
0.00050668 0.0249923 0.00372368 0.00247738 0.0298975 0.00372368 0.00475217 0.0262618 0.00372368 
0.0251274 0.0163894 0.0236812 0.0250847 0.0164548 0.0186518 0.0224647 0.0198831 0.0211884 
0.0164084 0.025115 0.00372368 0.0203184 0.0220717 0.00372368 0.0157653 0.0203057 0.00372368 
0.0157279 -0.0202072 0.00372368 0.0164084 -0.025115 0.00372368 0.0123194 -0.0226331 0.00372368 
0.0296875 0.00431884 0.0112237 0.0289467 0.00787963 0.0083766 0.0287785 0.00847339 0.0136906 
0.0250847 0.0164548 0.0186518 0.0223805 0.0199779 0.0161807 0.0224647 0.0198831 0.0211884 
-0.0203184 0.0220717 0.00372368 -0.0164084 0.025115 0.00372368 -0.0155033 0.0203259 0.00372368 
0.02139 -0.0141683 0.00372368 0.0236742 -0.0184264 0.00372368 0.0193677 -0.0178292 0.00372368 
0.03 -7.34788e-18 0.0187237 0.0296879 0.00431603 0.0162188 0.0296875 0.00431884 0.0212237 
0.0120509 -0.0274732 0.00372368 0.00814478 -0.0242894 0.00372368 0.0123194 -0.0226331 0.00372368 
-0.0203184 -0.0220717 0.00372368 -0.0236742 -0.0184264 0.00372368 -0.0192711 -0.0181234 0.00372368 
0.0296879 0.00431603 0.0162188 0.0287785 0.00847339 0.0136906 0.0287604 0.00853449 0.0187072 
0.0263842 -0.0142784 0.00372368 0.02139 -0.0141683 0.00372368 0.023376 -0.0105655 0.00372368 
0.0203184 0.0220717 0.00372368 0.0190979 0.0173202 0.00372368 0.0157653 0.0203057 0.00372368 
0.0164084 -0.025115 0.00372368 0.0120509 -0.0274732 0.00372368 0.0123194 -0.0226331 0.00372368 
0.03 -7.34788e-18 0.0187237 0.0297176 -0.00410653 0.021341 0.0297087 -0.00417057 0.0165141 
-0.029997 -0.000423074 0.0187845 -0.0296425 -0.00461751 0.016282 -0.029632 -0.0046846 0.0211819 
-0.0199921 0.0223677 0.018658 -0.0165492 0.0250225 0.0162468 -0.0201231 0.02225 0.0128537 
0.0231358 -0.0190981 0.0209658 0.0201941 -0.0221856 0.0183604 0.0231666 -0.0190606 0.01603 
0.0231358 -0.0190981 0.0209658 0.0255524 -0.0157187 0.0234458 0.023091 -0.0191522 0.0259674 
0.0263842 0.0142784 0.00372368 0.0233864 0.0102056 0.00372368 0.0220564 0.0145128 0.00372368 
0.03 -7.34788e-18 0.00372368 0.0295908 -0.00493784 0.00372368 0.0262759 -0.00240162 0.00372368 
0.0248596 -0.00634908 0.00372368 0.0283745 -0.00974098 0.00372368 0.023376 -0.0105655 0.00372368 
0.0295908 -0.00493784 0.00372368 0.029082 -0.00736456 0.0080134 0.0283745 -0.00974098 0.00372368 
0.0296875 0.00431884 0.0112237 0.0287785 0.00847339 0.0136906 0.0296879 0.00431603 0.0162188 
0.0283745 -0.00974098 0.00372368 0.0263842 -0.0142784 0.00372368 0.023376 -0.0105655 0.00372368 
0.0192678 0.0229946 0.0137266 0.0193501 0.0229254 0.0187378 0.0223805 0.0199779 0.0161807 
0.0295908 -0.00493784 0.00372368 0.0248596 -0.00634908 0.00372368 0.0262759 -0.00240162 0.00372368 
0.0272354 0.0125791 0.0112398 0.0250351 0.0165301 0.013559 0.0272154 0.0126222 0.0161736 
0.0222062 0.0201714 0.0111275 0.0192678 0.0229946 0.0137266 0.0223805 0.0199779 0.0161807 
0.0254585 0.00211549 0.00372368 0.03 -7.34788e-18 0.00372368 0.0262759 -0.00240162 0.00372368 
0.00977164 0.028364 0.00800666 0.0142805 0.0263831 0.00801425 0.0120509 0.0274732 0.00372368 
0.0236742 -0.0184264 0.00372368 0.0203184 -0.0220717 0.00372368 0.0193677 -0.0178292 0.00372368 
0.0272331 0.0125839 0.0212095 0.0250847 0.0164548 0.0186518 0.0251274 0.0163894 0.0236812 
-0.0236742 0.0184264 0.00372368 -0.0189852 0.0170671 0.00372368 -0.0220227 0.0136092 0.00372368 
-0.029998 -0.000345801 0.0142351 -0.0296425 -0.00461751 0.016282 -0.029997 -0.000423074 0.0187845 
-0.0263842 0.0142784 0.00372368 -0.0236742 0.0184264 0.00372368 -0.0220227 0.0136092 0.00372368 
0.0272154 0.0126222 0.0161736 0.0250351 0.0165301 0.013559 0.0250847 0.0164548 0.0186518 
0.0272154 0.0126222 0.0161736 0.0250847 0.0164548 0.0186518 0.0272331 0.0125839 0.0212095 
-0.0176812 0.0123146 0.00372368 -0.0165367 0.00759335 0.00372368 -0.0209022 0.00905108 0.00372368 
0.03 -7.34788e-18 0.00872368 0.0296875 0.00431884 0.0112237 0.03 -7.34788e-18 0.0137237 
0.0201589 0.00236947 0.00372368 0.0189144 0.00707811 0.00372368 0.0228419 0.00568166 0.00372368 
0.0214704 -0.00283669 0.00372368 0.0200699 -0.00761178 0.00372368 0.0170352 -0.00513945 0.00372368 
0.0262759 -0.00240162 0.00372368 0.0248596 -0.00634908 0.00372368 0.0214704 -0.00283669 0.00372368 
0.0296875 0.00431884 0.0112237 0.0296879 0.00431603 0.0162188 0.03 -7.34788e-18 0.0137237 
-0.00736456 0.029082 0.00372368 -0.00247738 0.0298975 0.00372368 -0.00480389 0.0254027 0.00372368 
-0.00247738 0.0298975 0.00372368 0.00050668 0.0249923 0.00372368 -0.00480389 0.0254027 0.00372368 
0.0287604 0.00853449 0.0187072 0.0272154 0.0126222 0.0161736 0.0272331 0.0125839 0.0212095 
-0.0155033 0.0203259 0.00372368 -0.0119049 0.0231923 0.00372368 -0.0110301 0.0188699 0.00372368 
0.0203184 -0.0220717 0.00372368 0.0184216 -0.023678 0.00800211 0.0164084 -0.025115 0.00372368 
-0.0210329 -0.00857697 0.00372368 -0.0252385 -0.00663486 0.00372368 -0.0219391 -0.00367156 0.00372368 
0.00050668 0.0249923 0.00372368 -0.00306504 0.0210841 0.00372368 -0.00480389 0.0254027 0.00372368 
0.00756968 -0.0163985 0.00372368 0.0111119 -0.0129281 0.00372368 0.0120396 -0.017547 0.00372368 
-0.0175293 -0.00534917 0.00372368 -0.0210329 -0.00857697 0.00372368 -0.0219391 -0.00367156 0.00372368 
0.0178597 0.0123767 0.00372368 0.0124538 0.0129968 0.00372368 0.0151607 0.0162574 0.00372368 
-0.0189852 0.0170671 0.00372368 -0.0176812 0.0123146 0.00372368 -0.0220227 0.0136092 0.00372368 
0.0164569 -0.00110475 0.00372368 0.0214704 -0.00283669 0.00372368 0.0170352 -0.00513945 0.00372368 
-0.0165507 0.0250215 0.0261434 -0.0165482 0.0250231 0.0211702 -0.0199638 0.022393 0.0236683 
0.0287604 0.00853449 0.0187072 0.0272331 0.0125839 0.0212095 0.0287579 0.00854315 0.0237095 
0.0224647 0.0198831 0.0211884 0.0193501 0.0229254 0.0187378 0.0194104 0.0228744 0.023694 
0.015062 -0.00917333 0.00372368 0.0129972 -0.0046275 0.00372368 0.0170352 -0.00513945 0.00372368 
-0.0152457 -0.0157881 0.00372368 -0.00987953 -0.0164218 0.00372368 -0.0123473 -0.0194528 0.00372368 
0.0120509 0.0274732 0.00372368 0.0142805 0.0263831 0.00801425 0.0164084 0.025115 0.00372368 
0.00450018 -0.0206173 0.00372368 0.00756968 -0.0163985 0.00372368 0.00891473 -0.0202971 0.00372368 
0.00913157 -0.0285765 0.0210161 0.00492562 -0.0295929 0.0235234 0.00490989 -0.0295955 0.0184994 
-0.00306504 0.0210841 0.00372368 -0.00640818 0.0176548 0.00372368 -0.0076627 0.0219387 0.00372368 
0.0224647 0.0198831 0.0211884 0.0194104 0.0228744 0.023694 0.0225248 0.019815 0.02618 
-0.000595274 -0.0186108 0.00372368 -9.41575e-05 -0.0230183 0.00372368 -0.0036895 -0.0211171 0.00372368 
-0.00809412 -0.0211818 0.00372368 -0.00528641 -0.0174878 0.00372368 -0.0036895 -0.0211171 0.00372368 
0.0287604 0.00853449 0.0187072 0.0287579 0.00854315 0.0237095 0.0296875 0.00431884 0.0212237 
-0.0287453 -0.00858536 0.0136414 -0.0288725 -0.00814748 0.00858375 -0.0271708 -0.012718 0.0110803 
-0.0159919 -0.0205249 0.00372368 -0.0152457 -0.0157881 0.00372368 -0.0123473 -0.0194528 0.00372368 
0.03 -7.34788e-18 0.0187237 0.0297087 -0.00417057 0.0165141 0.03 -7.34788e-18 0.0137237 
-0.0230511 0.00103609 0.00372368 -0.0186531 -0.000485601 0.00372368 -0.0219391 -0.00367156 0.00372368 
0.0122843 0.0228125 0.00372368 0.0113385 0.0181284 0.00372368 0.00935195 0.0210524 0.00372368 
0.0231358 -0.0190981 0.0209658 0.0231666 -0.0190606 0.01603 0.0256076 -0.0156285 0.0184942 
-0.00640818 0.0176548 0.00372368 -0.00983278 0.0143111 0.00372368 -0.0110301 0.0188699 0.00372368 
-0.00983278 0.0143111 0.00372368 -0.0131961 0.0109457 0.00372368 -0.0143728 0.0156392 0.00372368 
0.0272331 0.0125839 0.0212095 0.0251274 0.0163894 0.0236812 0.0272336 0.0125829 0.0261931 
0.0297135 -0.00413601 0.0262524 0.0297176 -0.00410653 0.021341 0.03 -7.34788e-18 0.0237237 
-9.41575e-05 -0.0230183 0.00372368 -0.00437754 -0.0252867 0.00372368 -0.0036895 -0.0211171 0.00372368 
0.0200699 -0.00761178 0.00372368 0.0248596 -0.00634908 0.00372368 0.023376 -0.0105655 0.00372368 
-0.0230511 0.00103609 0.00372368 -0.0219391 -0.00367156 0.00372368 -0.026125 -0.00201284 0.00372368 
0.00911884 -0.0285805 0.0260025 0.00492562 -0.0295929 0.0235234 0.00913157 -0.0285765 0.0210161 
0.00736456 0.029082 0.00372368 0.00977164 0.028364 0.00800666 0.0120509 0.0274732 0.00372368 
-0.0152457 -0.0157881 0.00372368 -0.0159919 -0.0205249 0.00372368 -0.0192711 -0.0181234 0.00372368 
0.00494465 0.0295897 0.00798478 0.00977164 0.028364 0.00800666 0.00736456 0.029082 0.00372368 
-0.0165367 0.00759335 0.00372368 -0.0198826 0.00432235 0.00372368 -0.0209022 0.00905108 0.00372368 
0.0111119 -0.0129281 0.00372368 0.0159555 -0.0144888 0.00372368 0.0120396 -0.017547 0.00372368 
0.0251274 0.0163894 0.0236812 0.0224647 0.0198831 0.0211884 0.0225248 0.019815 0.02618 
0.0256076 -0.0156285 0.0184942 0.0254329 -0.0159112 0.0137165 0.0277133 -0.011488 0.0157469 
0.0223805 0.0199779 0.0161807 0.0193501 0.0229254 0.0187378 0.0224647 0.0198831 0.0211884 
0.0131134 -0.0269822 0.0235191 0.00913157 -0.0285765 0.0210161 0.0131403 -0.0269691 0.0185532 
0.0296875 0.00431884 0.0212237 0.029686 0.0043293 0.0262152 0.03 -7.34788e-18 0.0237237 
0.0254585 0.00211549 0.00372368 0.0201589 0.00236947 0.00372368 0.0228419 0.00568166 0.00372368 
-0.0297559 0.00381921 0.0162292 -0.0289079 0.00802077 0.0137396 -0.0297561 0.00381799 0.0112549 
-0.0198826 0.00432235 0.00372368 -0.0247613 0.00595337 0.00372368 -0.0209022 0.00905108 0.00372368 
0.02139 -0.0141683 0.00372368 0.0159555 -0.0144888 0.00372368 0.0184672 -0.0112631 0.00372368 
-0.0175293 -0.00534917 0.00372368 -0.0165351 -0.0104289 0.00372368 -0.0210329 -0.00857697 0.00372368 
0.0203184 -0.0220717 0.00372368 0.0220698 -0.0203205 0.00801502 0.0184216 -0.023678 0.00800211 
-0.0131961 0.0109457 0.00372368 -0.0176812 0.0123146 0.00372368 -0.0143728 0.0156392 0.00372368 
-0.029997 -0.000423074 0.0187845 -0.029632 -0.0046846 0.0211819 -0.0299964 -0.000462494 0.02366 
0.0251416 -0.0163677 0.00809909 0.0220698 -0.0203205 0.00801502 0.0236742 -0.0184264 0.00372368 
0.0214704 -0.00283669 0.00372368 0.0248596 -0.00634908 0.00372368 0.0200699 -0.00761178 0.00372368 
0.0189144 0.00707811 0.00372368 0.0139478 0.00826628 0.00372368 0.0178597 0.0123767 0.00372368 
0.0272331 0.0125839 0.0212095 0.0272336 0.0125829 0.0261931 0.0287579 0.00854315 0.0237095 
0.0139478 0.00826628 0.00372368 0.0124538 0.0129968 0.00372368 0.0178597 0.0123767 0.00372368 
0.0120396 -0.017547 0.00372368 0.0123194 -0.0226331 0.00372368 0.00891473 -0.0202971 0.00372368 
0.0256076 -0.0156285 0.0184942 0.0275305 -0.0119195 0.0210067 0.0255524 -0.0157187 0.0234458 
-0.0220227 0.0136092 0.00372368 -0.0209022 0.00905108 0.00372368 -0.024489 0.0105266 0.00372368 
0.0236742 -0.0184264 0.00372368 0.0220698 -0.0203205 0.00801502 0.0203184 -0.0220717 0.00372368 
0.0104845 0.00476988 0.00372368 0.00914902 0.00951011 0.00372368 0.0139478 0.00826628 0.00372368 
0.023376 -0.0105655 0.00372368 0.02139 -0.0141683 0.00372368 0.0184672 -0.0112631 0.00372368 
0.0152921 0.00356892 0.00372368 0.0104845 0.00476988 0.00372368 0.0139478 0.00826628 0.00372368 
0.00914902 0.00951011 0.00372368 0.0124538 0.0129968 0.00372368 0.0139478 0.00826628 0.00372368 
-0.00037666 0.0299976 0.021271 0.0037865 0.0297601 0.0188171 -0.000422135 0.029997 0.0164792 
0.0189144 0.00707811 0.00372368 0.0152921 0.00356892 0.00372368 0.0139478 0.00826628 0.00372368 
0.0231666 -0.0190606 0.01603 0.0254329 -0.0159112 0.0137165 0.0256076 -0.0156285 0.0184942 
0.0111119 -0.0129281 0.00372368 0.00630495 -0.0117307 0.00372368 0.00979689 -0.0081546 0.00372368 
0.00979689 -0.0081546 0.00372368 0.0129972 -0.0046275 0.00372368 0.015062 -0.00917333 0.00372368 
0.0111119 -0.0129281 0.00372368 0.00979689 -0.0081546 0.00372368 0.015062 -0.00917333 0.00372368 
0.000508707 -0.0299957 0.0160298 0.00490989 -0.0295955 0.0184994 0.000599139 -0.029994 0.0210449 
0.00358503 -0.00228145 0.00372368 0.00702628 0.00124848 0.00372368 0.00835543 -0.00346515 0.00372368 
0.0113385 0.0181284 0.00372368 0.0157653 0.0203057 0.00372368 0.0151607 0.0162574 0.00372368 
0.00630495 -0.0117307 0.00372368 0.00495016 -0.0070021 0.00372368 0.00979689 -0.0081546 0.00372368 
-0.0199638 0.022393 0.0236683 -0.0165482 0.0250231 0.0211702 -0.0199921 0.0223677 0.018658 
0.00702628 0.00124848 0.00372368 0.0117816 4.48598e-05 0.00372368 0.00835543 -0.00346515 0.00372368 
0.00489992 -0.0295971 0.0133315 0.00919592 -0.0285558 0.0159589 0.00490989 -0.0295955 0.0184994 
-0.029623 -0.00474124 0.0261215 -0.029632 -0.0046846 0.0211819 -0.0286483 -0.00890377 0.023627 
0.0131403 -0.0269691 0.0185532 0.0131895 -0.0269451 0.0135859 0.0168138 -0.0248454 0.0160575 
0.00495016 -0.0070021 0.00372368 0.00358503 -0.00228145 0.00372368 0.00835543 -0.00346515 0.00372368 
-0.00876977 0.0286896 0.0261672 -0.00459593 0.0296459 0.0237154 -0.00871042 0.0287076 0.0212002 
0.03 -7.34788e-18 0.0187237 0.0296875 0.00431884 0.0212237 0.03 -7.34788e-18 0.0237237 
0.0117816 4.48598e-05 0.00372368 0.0129972 -0.0046275 0.00372368 0.00835543 -0.00346515 0.00372368 
0.0111119 -0.0129281 0.00372368 0.015062 -0.00917333 0.00372368 0.0159555 -0.0144888 0.00372368 
0.0168149 -0.0248447 0.0210164 0.0201941 -0.0221856 0.0183604 0.0201962 -0.0221837 0.0234958 
0.00170261 0.0199253 0.00372368 -0.00171542 0.0165759 0.00372368 -0.00306504 0.0210841 0.00372368 
-0.00171542 0.0165759 0.00372368 -0.00640818 0.0176548 0.00372368 -0.00306504 0.0210841 0.00372368 
0.00913157 -0.0285765 0.0210161 0.00919592 -0.0285558 0.0159589 0.0131403 -0.0269691 0.0185532 
0.0194104 0.0228744 0.023694 0.0158958 0.0254425 0.0212311 0.0159468 0.0254106 0.026181 
0.0201962 -0.0221837 0.0234958 0.0231358 -0.0190981 0.0209658 0.023091 -0.0191522 0.0259674 
0.0164084 -0.025115 0.00372368 0.0184216 -0.023678 0.00800211 0.0142784 -0.0263842 0.0080134 
-0.00876977 0.0286896 0.0261672 -0.00871042 0.0287076 0.0212002 -0.0127745 0.0271443 0.0236423 
0.00170261 0.0199253 0.00372368 0.00305038 0.0154113 0.00372368 -0.00171542 0.0165759 0.00372368 
0.00305038 0.0154113 0.00372368 -0.000388486 0.0119076 0.00372368 -0.00171542 0.0165759 0.00372368 
-0.0051264 0.0130917 0.00372368 -0.00640818 0.0176548 0.00372368 -0.00171542 0.0165759 0.00372368 
0.00305038 0.0154113 0.00372368 0.00437898 0.0107297 0.00372368 -0.000388486 0.0119076 0.00372368 
0.03 -7.34788e-18 0.0237237 0.0297176 -0.00410653 0.021341 0.03 -7.34788e-18 0.0187237 
0.0131134 -0.0269822 0.0235191 0.0131403 -0.0269691 0.0185532 0.0168149 -0.0248447 0.0210164 
-0.0299964 -0.000462494 0.02366 -0.029632 -0.0046846 0.0211819 -0.029623 -0.00474124 0.0261215 
0.00437898 0.0107297 0.00372368 0.000927363 0.00719508 0.00372368 -0.000388486 0.0119076 0.00372368 
-0.000388486 0.0119076 0.00372368 -0.0051264 0.0130917 0.00372368 -0.00171542 0.0165759 0.00372368 
0.000927363 0.00719508 0.00372368 -0.0038409 0.00840691 0.00372368 -0.000388486 0.0119076 0.00372368 
-0.0038409 0.00840691 0.00372368 -0.0051264 0.0130917 0.00372368 -0.000388486 0.0119076 0.00372368 
-0.0126937 0.0271821 0.018567 -0.0165482 0.0250231 0.0211702 -0.0127745 0.0271443 0.0236423 
0.00224885 0.00245636 0.00372368 -0.00253304 0.00367461 0.00372368 0.000927363 0.00719508 0.00372368 
0.00437898 0.0107297 0.00372368 0.0057057 0.00598784 0.00372368 0.000927363 0.00719508 0.00372368 
0.0057057 0.00598784 0.00372368 0.00224885 0.00245636 0.00372368 0.000927363 0.00719508 0.00372368 
-0.00253304 0.00367461 0.00372368 -0.0038409 0.00840691 0.00372368 0.000927363 0.00719508 0.00372368 
0.00800073 0.0289135 0.0212366 0.0120559 0.027471 0.0186337 0.0078534 0.0289538 0.0162939 
0.0113385 0.0181284 0.00372368 0.0078412 0.0143448 0.00372368 0.00649523 0.0189422 0.00372368 
0.0078412 0.0143448 0.00372368 0.00305038 0.0154113 0.00372368 0.00649523 0.0189422 0.00372368 
0.00630495 -0.0117307 0.00372368 0.00151338 -0.0105529 0.00372368 0.00495016 -0.0070021 0.00372368 
0.00649523 0.0189422 0.00372368 0.00305038 0.0154113 0.00372368 0.00170261 0.0199253 0.00372368 
-0.0297569 0.00381178 0.0211682 -0.0297578 0.00380405 0.0261258 -0.0289098 0.00801405 0.0236503 
-0.00328617 -0.00934559 0.00372368 -0.00464997 -0.00460866 0.00372368 0.000148391 -0.0058171 0.00372368 
0.000148391 -0.0058171 0.00372368 0.00358503 -0.00228145 0.00372368 0.00495016 -0.0070021 0.00372368 
-0.00464997 -0.00460866 0.00372368 -0.00120231 -0.0010755 0.00372368 0.000148391 -0.0058171 0.00372368 
0.00151338 -0.0105529 0.00372368 -0.00328617 -0.00934559 0.00372368 0.000148391 -0.0058171 0.00372368 
-0.00120231 -0.0010755 0.00372368 0.00358503 -0.00228145 0.00372368 0.000148391 -0.0058171 0.00372368 
0.00151338 -0.0105529 0.00372368 0.000148391 -0.0058171 0.00372368 0.00495016 -0.0070021 0.00372368 
-0.0116124 -0.0117373 0.00372368 -0.0129013 -0.00692497 0.00372368 -0.00812738 -0.00816729 0.00372368 
-0.0141047 -0.0019928 0.00372368 -0.0107428 0.00140721 0.00372368 -0.00943154 -0.00337269 0.00372368 
0.03 -7.34788e-18 0.0137237 0.0296879 0.00431603 0.0162188 0.03 -7.34788e-18 0.0187237 
-0.00855295 0.00964356 0.00372368 -0.0131961 0.0109457 0.00372368 -0.00983278 0.0143111 0.00372368 
-0.0051264 0.0130917 0.00372368 -0.00855295 0.00964356 0.00372368 -0.00983278 0.0143111 0.00372368 
0.0121103 0.027447 0.0236855 0.0158958 0.0254425 0.0212311 0.0120559 0.027471 0.0186337 
-0.0051264 0.0130917 0.00372368 -0.00983278 0.0143111 0.00372368 -0.00640818 0.0176548 0.00372368 
-0.00943154 -0.00337269 0.00372368 -0.00464997 -0.00460866 0.00372368 -0.00812738 -0.00816729 0.00372368 
-0.00668676 -0.0128729 0.00372368 -0.0116124 -0.0117373 0.00372368 -0.00812738 -0.00816729 0.00372368 
-0.0165492 0.0250225 0.0162468 -0.0165482 0.0250231 0.0211702 -0.0126937 0.0271821 0.018567 
-0.0107428 0.00140721 0.00372368 -0.00598711 0.000149091 0.00372368 -0.00943154 -0.00337269 0.00372368 
-0.0129013 -0.00692497 0.00372368 -0.0141047 -0.0019928 0.00372368 -0.00943154 -0.00337269 0.00372368 
0.0078534 0.0289538 0.0162939 0.00371136 0.0297695 0.0138571 0.0037865 0.0297601 0.0188171 
-0.00788936 -0.0289441 0.0162391 -0.00385588 -0.0297512 0.013628 -0.00372595 -0.0297677 0.0186059 
0.00911884 -0.0285805 0.0260025 0.00913157 -0.0285765 0.0210161 0.0131134 -0.0269822 0.0235191 
-0.00598711 0.000149091 0.00372368 -0.00464997 -0.00460866 0.00372368 -0.00943154 -0.00337269 0.00372368 
-0.0120054 0.00619111 0.00372368 -0.0131961 0.0109457 0.00372368 -0.00855295 0.00964356 0.00372368 
0.00151338 -0.0105529 0.00372368 -0.00190874 -0.0140446 0.00372368 -0.00328617 -0.00934559 0.00372368 
-0.0038409 0.00840691 0.00372368 -0.00855295 0.00964356 0.00372368 -0.0051264 0.0130917 0.00372368 
-0.0120509 0.0274732 0.00372368 -0.00974098 0.0283745 0.0080134 -0.00736456 0.029082 0.00372368 
-0.0072933 0.0049091 0.00372368 -0.0120054 0.00619111 0.00372368 -0.00855295 0.00964356 0.00372368 
-0.0038409 0.00840691 0.00372368 -0.0072933 0.0049091 0.00372368 -0.00855295 0.00964356 0.00372368 
-0.0129013 -0.00692497 0.00372368 -0.00943154 -0.00337269 0.00372368 -0.00812738 -0.00816729 0.00372368 
-0.00037666 0.0299976 0.021271 -0.000355799 0.0299979 0.0261953 0.00388603 0.0297472 0.0237257 
-0.00190874 -0.0140446 0.00372368 -0.00668676 -0.0128729 0.00372368 -0.00328617 -0.00934559 0.00372368 
-0.0153383 0.00282112 0.00372368 -0.0186531 -0.000485601 0.00372368 -0.0198826 0.00432235 0.00372368 
-0.0165367 0.00759335 0.00372368 -0.0153383 0.00282112 0.00372368 -0.0198826 0.00432235 0.00372368 
-0.0198826 0.00432235 0.00372368 -0.0186531 -0.000485601 0.00372368 -0.0230511 0.00103609 0.00372368 
-0.00464997 -0.00460866 0.00372368 -0.00328617 -0.00934559 0.00372368 -0.00812738 -0.00816729 0.00372368 
-0.000595274 -0.0186108 0.00372368 0.00450018 -0.0206173 0.00372368 -9.41575e-05 -0.0230183 0.00372368 
0.0263842 -0.0142784 0.00372368 0.0236742 -0.0184264 0.00372368 0.02139 -0.0141683 0.00372368 
0.008107 0.0288838 0.0261944 0.0121103 0.027447 0.0236855 0.00800073 0.0289135 0.0212366 
-0.000595274 -0.0186108 0.00372368 0.00289521 -0.0153307 0.00372368 0.00450018 -0.0206173 0.00372368 
0.00736456 0.029082 0.00372368 0.0120509 0.0274732 0.00372368 0.00844368 0.024816 0.00372368 
-0.00366495 -0.0297753 0.0235546 -0.00372595 -0.0297677 0.0186059 0.000599139 -0.029994 0.0210449 
0.000508707 -0.0299957 0.0160298 -0.00385588 -0.0297512 0.013628 0.000157307 -0.0299996 0.0110382 
-0.0236742 -0.0184264 0.00372368 -0.0263842 -0.0142784 0.00372368 -0.0210811 -0.013826 0.00372368 
-0.00528641 -0.0174878 0.00372368 -0.00190874 -0.0140446 0.00372368 -0.000595274 -0.0186108 0.00372368 
-0.00987953 -0.0164218 0.00372368 -0.0116124 -0.0117373 0.00372368 -0.00668676 -0.0128729 0.00372368 
-0.00787846 -0.028947 0.0210968 -0.00788936 -0.0289441 0.0162391 -0.00372595 -0.0297677 0.0186059 
0.000508707 -0.0299957 0.0160298 0.000157307 -0.0299996 0.0110382 0.00489992 -0.0295971 0.0133315 
0.0131134 -0.0269822 0.0235191 0.0168149 -0.0248447 0.0210164 0.0168154 -0.0248444 0.025987 
0.0131403 -0.0269691 0.0185532 0.0168138 -0.0248454 0.0160575 0.0168149 -0.0248447 0.0210164 
-0.0236742 0.0184264 0.00372368 -0.0203184 0.0220717 0.00372368 -0.0189852 0.0170671 0.00372368 
0.00289521 -0.0153307 0.00372368 0.00756968 -0.0163985 0.00372368 0.00450018 -0.0206173 0.00372368 
0.00289521 -0.0153307 0.00372368 -0.00190874 -0.0140446 0.00372368 0.00151338 -0.0105529 0.00372368 
-0.000595274 -0.0186108 0.00372368 -0.00190874 -0.0140446 0.00372368 0.00289521 -0.0153307 0.00372368 
-0.00528641 -0.0174878 0.00372368 -0.00668676 -0.0128729 0.00372368 -0.00190874 -0.0140446 0.00372368 
-0.00987953 -0.0164218 0.00372368 -0.00668676 -0.0128729 0.00372368 -0.00528641 -0.0174878 0.00372368 
-0.0295908 0.00493784 0.00372368 -0.0283745 0.00974098 0.00372368 -0.0247613 0.00595337 0.00372368 
-0.00247738 0.0298975 0.00372368 0.00247738 0.0298975 0.00372368 0.00050668 0.0249923 0.00372368 
-0.00366495 -0.0297753 0.0235546 -0.00787846 -0.028947 0.0210968 -0.00372595 -0.0297677 0.0186059 
0.00289521 -0.0153307 0.00372368 0.00630495 -0.0117307 0.00372368 0.00756968 -0.0163985 0.00372368 
-0.00987953 -0.0164218 0.00372368 -0.00528641 -0.0174878 0.00372368 -0.00809412 -0.0211818 0.00372368 
0.00756968 -0.0163985 0.00372368 0.00630495 -0.0117307 0.00372368 0.0111119 -0.0129281 0.00372368 
0.00289521 -0.0153307 0.00372368 0.00151338 -0.0105529 0.00372368 0.00630495 -0.0117307 0.00372368 
-0.00456663 0.0296504 0.018749 -0.00461575 0.0296428 0.0137833 -0.00853274 0.028761 0.0162184 
0.0203184 0.0220717 0.00372368 0.0236742 0.0184264 0.00372368 0.0190979 0.0173202 0.00372368 
-0.00247738 -0.0298975 0.00372368 -0.00736456 -0.029082 0.00372368 -0.00437754 -0.0252867 0.00372368 
0.0203184 -0.0220717 0.00372368 0.0164084 -0.025115 0.00372368 0.0157279 -0.0202072 0.00372368 
0.0120509 -0.0274732 0.00372368 0.00736456 -0.029082 0.00372368 0.00814478 -0.0242894 0.00372368 
0.0037865 0.0297601 0.0188171 0.00371136 0.0297695 0.0138571 -0.000422135 0.029997 0.0164792 
-0.0152457 -0.0157881 0.00372368 -0.0116124 -0.0117373 0.00372368 -0.00987953 -0.0164218 0.00372368 
-0.000422135 0.029997 0.0164792 -0.00461575 0.0296428 0.0137833 -0.00456663 0.0296504 0.018749 
-0.00787846 -0.028947 0.0210968 -0.011914 -0.0275328 0.0185429 -0.00788936 -0.0289441 0.0162391 
-0.00366495 -0.0297753 0.0235546 0.000599139 -0.029994 0.0210449 0.000648215 -0.029993 0.0260224 
-0.00372595 -0.0297677 0.0186059 0.000508707 -0.0299957 0.0160298 0.000599139 -0.029994 0.0210449 
0.0263842 0.0142784 0.00372368 0.0283745 0.00974098 0.00372368 0.0233864 0.0102056 0.00372368 
-0.0283745 -0.00974098 0.00372368 -0.0295908 -0.00493784 0.00372368 -0.0252385 -0.00663486 0.00372368 
0.0201962 -0.0221837 0.0234958 0.0201941 -0.0221856 0.0183604 0.0231358 -0.0190981 0.0209658 
0.00388603 0.0297472 0.0237257 0.008107 0.0288838 0.0261944 0.00800073 0.0289135 0.0212366 
-0.00366495 -0.0297753 0.0235546 -0.00786309 -0.0289512 0.0260458 -0.00787846 -0.028947 0.0210968 
-0.0164084 0.025115 0.00372368 -0.0120509 0.0274732 0.00372368 -0.0119049 0.0231923 0.00372368 
-0.011914 -0.0275328 0.0185429 -0.0119911 -0.0274993 0.0129878 -0.00788936 -0.0289441 0.0162391 
-0.0164084 -0.025115 0.00372368 -0.0203184 -0.0220717 0.00372368 -0.0159919 -0.0205249 0.00372368 
0.0295908 0.00493784 0.00372368 0.03 -7.34788e-18 0.00372368 0.0254585 0.00211549 0.00372368 
0.0295908 -0.00493784 0.00372368 0.0283745 -0.00974098 0.00372368 0.0248596 -0.00634908 0.00372368 
-0.0165351 -0.0104289 0.00372368 -0.0116124 -0.0117373 0.00372368 -0.0152457 -0.0157881 0.00372368 
-0.0165351 -0.0104289 0.00372368 -0.0129013 -0.00692497 0.00372368 -0.0116124 -0.0117373 0.00372368 
-0.0175293 -0.00534917 0.00372368 -0.0129013 -0.00692497 0.00372368 -0.0165351 -0.0104289 0.00372368 
-0.0175293 -0.00534917 0.00372368 -0.0141047 -0.0019928 0.00372368 -0.0129013 -0.00692497 0.00372368 
-0.0186531 -0.000485601 0.00372368 -0.0141047 -0.0019928 0.00372368 -0.0175293 -0.00534917 0.00372368 
-0.0131961 0.0109457 0.00372368 -0.0165367 0.00759335 0.00372368 -0.0176812 0.0123146 0.00372368 
-0.0153383 0.00282112 0.00372368 -0.0141047 -0.0019928 0.00372368 -0.0186531 -0.000485601 0.00372368 
-0.0120054 0.00619111 0.00372368 -0.0165367 0.00759335 0.00372368 -0.0131961 0.0109457 0.00372368 
-0.00459593 0.0296459 0.0237154 -0.00037666 0.0299976 0.021271 -0.00456663 0.0296504 0.018749 
-0.0120054 0.00619111 0.00372368 -0.0153383 0.00282112 0.00372368 -0.0165367 0.00759335 0.00372368 
-0.0153383 0.00282112 0.00372368 -0.0107428 0.00140721 0.00372368 -0.0141047 -0.0019928 0.00372368 
-0.0120054 0.00619111 0.00372368 -0.0107428 0.00140721 0.00372368 -0.0153383 0.00282112 0.00372368 
-0.0072933 0.0049091 0.00372368 -0.0107428 0.00140721 0.00372368 -0.0120054 0.00619111 0.00372368 
-0.00253304 0.00367461 0.00372368 -0.0072933 0.0049091 0.00372368 -0.0038409 0.00840691 0.00372368 
-0.0072933 0.0049091 0.00372368 -0.00598711 0.000149091 0.00372368 -0.0107428 0.00140721 0.00372368 
-0.00253304 0.00367461 0.00372368 -0.00598711 0.000149091 0.00372368 -0.0072933 0.0049091 0.00372368 
-0.00598711 0.000149091 0.00372368 -0.00120231 -0.0010755 0.00372368 -0.00464997 -0.00460866 0.00372368 
-0.00328617 -0.00934559 0.00372368 -0.00668676 -0.0128729 0.00372368 -0.00812738 -0.00816729 0.00372368 
-0.00253304 0.00367461 0.00372368 -0.00120231 -0.0010755 0.00372368 -0.00598711 0.000149091 0.00372368 
-0.00871042 0.0287076 0.0212002 -0.0126937 0.0271821 0.018567 -0.0127745 0.0271443 0.0236423 
0.0124538 0.0129968 0.00372368 0.0078412 0.0143448 0.00372368 0.0113385 0.0181284 0.00372368 
0.00224885 0.00245636 0.00372368 -0.00120231 -0.0010755 0.00372368 -0.00253304 0.00367461 0.00372368 
0.0078412 0.0143448 0.00372368 0.00437898 0.0107297 0.00372368 0.00305038 0.0154113 0.00372368 
0.00914902 0.00951011 0.00372368 0.0078412 0.0143448 0.00372368 0.0124538 0.0129968 0.00372368 
-0.0127745 0.0271443 0.0236423 -0.0165482 0.0250231 0.0211702 -0.0165507 0.0250215 0.0261434 
0.00224885 0.00245636 0.00372368 0.00358503 -0.00228145 0.00372368 -0.00120231 -0.0010755 0.00372368 
0.00914902 0.00951011 0.00372368 0.00437898 0.0107297 0.00372368 0.0078412 0.0143448 0.00372368 
-0.00372595 -0.0297677 0.0186059 -0.00385588 -0.0297512 0.013628 0.000508707 -0.0299957 0.0160298 
0.00914902 0.00951011 0.00372368 0.0057057 0.00598784 0.00372368 0.00437898 0.0107297 0.00372368 
0.00224885 0.00245636 0.00372368 0.00702628 0.00124848 0.00372368 0.00358503 -0.00228145 0.00372368 
0.00835543 -0.00346515 0.00372368 0.0129972 -0.0046275 0.00372368 0.00979689 -0.0081546 0.00372368 
0.0057057 0.00598784 0.00372368 0.00702628 0.00124848 0.00372368 0.00224885 0.00245636 0.00372368 
-0.0157275 -0.0255469 0.0210905 -0.0192 -0.0230512 0.018629 -0.0157306 -0.025545 0.0161277 
0.00490989 -0.0295955 0.0184994 0.00492562 -0.0295929 0.0235234 0.000599139 -0.029994 0.0210449 
-0.0295908 -0.00493784 0.00372368 -0.0299026 -0.00241541 0.00776079 -0.03 -6.29394e-17 0.00372368 
0.0104845 0.00476988 0.00372368 0.0057057 0.00598784 0.00372368 0.00914902 0.00951011 0.00372368 
0.0104845 0.00476988 0.00372368 0.00702628 0.00124848 0.00372368 0.0057057 0.00598784 0.00372368 
-0.011914 -0.0275328 0.0185429 -0.0157275 -0.0255469 0.0210905 -0.0157306 -0.025545 0.0161277 
0.0104845 0.00476988 0.00372368 0.0117816 4.48598e-05 0.00372368 0.00702628 0.00124848 0.00372368 
0.0159468 0.0254106 0.026181 0.0158958 0.0254425 0.0212311 0.0121103 0.027447 0.0236855 
-0.00456663 0.0296504 0.018749 -0.00853274 0.028761 0.0162184 -0.00871042 0.0287076 0.0212002 
-0.0143728 0.0156392 0.00372368 -0.0189852 0.0170671 0.00372368 -0.0155033 0.0203259 0.00372368 
0.0120559 0.027471 0.0186337 0.015885 0.0254493 0.0163686 0.0120283 0.0274831 0.013095 
0.0152921 0.00356892 0.00372368 0.0117816 4.48598e-05 0.00372368 0.0104845 0.00476988 0.00372368 
-0.011914 -0.0275328 0.0185429 -0.0157306 -0.025545 0.0161277 -0.0119911 -0.0274993 0.0129878 
-0.0274685 0.0120615 0.0212071 -0.0254673 0.0158561 0.0187126 -0.0274537 0.0120952 0.0163474 
0.0117816 4.48598e-05 0.00372368 0.0164569 -0.00110475 0.00372368 0.0129972 -0.0046275 0.00372368 
-0.0192 -0.0230512 0.018629 -0.0192177 -0.0230365 0.0136558 -0.0157306 -0.025545 0.0161277 
-0.0229688 0.0192985 0.0163009 -0.0253407 0.0160578 0.0138104 -0.0254673 0.0158561 0.0187126 
0.00495016 -0.0070021 0.00372368 0.00835543 -0.00346515 0.00372368 0.00979689 -0.0081546 0.00372368 
-0.0176812 0.0123146 0.00372368 -0.0189852 0.0170671 0.00372368 -0.0143728 0.0156392 0.00372368 
0.0152921 0.00356892 0.00372368 0.0164569 -0.00110475 0.00372368 0.0117816 4.48598e-05 0.00372368 
0.0201589 0.00236947 0.00372368 0.0152921 0.00356892 0.00372368 0.0189144 0.00707811 0.00372368 
-0.0176812 0.0123146 0.00372368 -0.0209022 0.00905108 0.00372368 -0.0220227 0.0136092 0.00372368 
0.0120396 -0.017547 0.00372368 0.0157279 -0.0202072 0.00372368 0.0123194 -0.0226331 0.00372368 
0.0201589 0.00236947 0.00372368 0.0164569 -0.00110475 0.00372368 0.0152921 0.00356892 0.00372368 
0.0189144 0.00707811 0.00372368 0.0233864 0.0102056 0.00372368 0.0228419 0.00568166 0.00372368 
-0.0119049 0.0231923 0.00372368 -0.0076627 0.0219387 0.00372368 -0.0110301 0.0188699 0.00372368 
0.0159555 -0.0144888 0.00372368 0.02139 -0.0141683 0.00372368 0.0193677 -0.0178292 0.00372368 
0.00050668 0.0249923 0.00372368 0.00475217 0.0262618 0.00372368 0.0049706 0.0224562 0.00372368 
-0.0254673 0.0158561 0.0187126 -0.0253407 0.0160578 0.0138104 -0.0274537 0.0120952 0.0163474 
0.0200699 -0.00761178 0.00372368 0.023376 -0.0105655 0.00372368 0.0184672 -0.0112631 0.00372368 
-0.0143728 0.0156392 0.00372368 -0.0155033 0.0203259 0.00372368 -0.0110301 0.0188699 0.00372368 
0.0190979 0.0173202 0.00372368 0.0178597 0.0123767 0.00372368 0.0151607 0.0162574 0.00372368 
0.015062 -0.00917333 0.00372368 0.0200699 -0.00761178 0.00372368 0.0184672 -0.0112631 0.00372368 
0.00814478 -0.0242894 0.00372368 0.00450018 -0.0206173 0.00372368 0.00891473 -0.0202971 0.00372368 
-9.41575e-05 -0.0230183 0.00372368 0.00450018 -0.0206173 0.00372368 0.00371169 -0.0256228 0.00372368 
-0.0254724 0.0158479 0.0236636 -0.0254673 0.0158561 0.0187126 -0.0274685 0.0120615 0.0212071 
0.0201589 0.00236947 0.00372368 0.0214704 -0.00283669 0.00372368 0.0164569 -0.00110475 0.00372368 
0.0200699 -0.00761178 0.00372368 0.015062 -0.00917333 0.00372368 0.0170352 -0.00513945 0.00372368 
-0.0076627 0.0219387 0.00372368 -0.00640818 0.0176548 0.00372368 -0.0110301 0.0188699 0.00372368 
-0.00853274 0.028761 0.0162184 -0.0126937 0.0271821 0.018567 -0.00871042 0.0287076 0.0212002 
0.0164084 0.025115 0.00372368 0.0184264 0.0236742 0.0080134 0.0203184 0.0220717 0.00372368 
0.0157279 -0.0202072 0.00372368 0.0159555 -0.0144888 0.00372368 0.0193677 -0.0178292 0.00372368 
0.00170261 0.0199253 0.00372368 0.00050668 0.0249923 0.00372368 0.0049706 0.0224562 0.00372368 
0.0157653 0.0203057 0.00372368 0.0113385 0.0181284 0.00372368 0.0122843 0.0228125 0.00372368 
0.00050668 0.0249923 0.00372368 0.00170261 0.0199253 0.00372368 -0.00306504 0.0210841 0.00372368 
0.0159555 -0.0144888 0.00372368 0.0157279 -0.0202072 0.00372368 0.0120396 -0.017547 0.00372368 
-0.0247613 0.00595337 0.00372368 -0.0230511 0.00103609 0.00372368 -0.0269306 0.00213112 0.00372368 
0.0178597 0.0123767 0.00372368 0.0190979 0.0173202 0.00372368 0.0220564 0.0145128 0.00372368 
-0.00809412 -0.0211818 0.00372368 -0.00437754 -0.0252867 0.00372368 -0.00884013 -0.0252871 0.00372368 
-0.00437754 -0.0252867 0.00372368 -0.00809412 -0.0211818 0.00372368 -0.0036895 -0.0211171 0.00372368 
-0.029997 -0.000423074 0.0187845 -0.0299964 -0.000462494 0.02366 -0.0297569 0.00381178 0.0211682 
-0.0222981 -0.0200697 0.0260847 -0.0222962 -0.0200718 0.0211075 -0.0192045 -0.0230475 0.0235981 
-0.0165351 -0.0104289 0.00372368 -0.0210811 -0.013826 0.00372368 -0.0210329 -0.00857697 0.00372368 
0.00450018 -0.0206173 0.00372368 0.00814478 -0.0242894 0.00372368 0.00371169 -0.0256228 0.00372368 
-0.0247613 0.00595337 0.00372368 -0.0198826 0.00432235 0.00372368 -0.0230511 0.00103609 0.00372368 
0.0233864 0.0102056 0.00372368 0.0178597 0.0123767 0.00372368 0.0220564 0.0145128 0.00372368 
0.0254585 0.00211549 0.00372368 0.0262759 -0.00240162 0.00372368 0.0214704 -0.00283669 0.00372368 
-0.0199638 0.022393 0.0236683 -0.0229508 0.01932 0.0211973 -0.0229534 0.0193168 0.0261475 
-0.0210811 -0.013826 0.00372368 -0.0152457 -0.0157881 0.00372368 -0.0192711 -0.0181234 0.00372368 
0.0233864 0.0102056 0.00372368 0.0189144 0.00707811 0.00372368 0.0178597 0.0123767 0.00372368 
0.0254585 0.00211549 0.00372368 0.0214704 -0.00283669 0.00372368 0.0201589 0.00236947 0.00372368 
-0.0210811 -0.013826 0.00372368 -0.0165351 -0.0104289 0.00372368 -0.0152457 -0.0157881 0.00372368 
-0.000625354 0.0299935 0.0121126 0.00247738 0.0298975 0.0105581 -1.49662e-14 0.03 0.0080134 
-0.0298975 0.00247738 0.00720004 -0.0299998 0.000100872 0.0104372 -0.0297561 0.00381799 0.0112549 
0.0289195 -0.007979 0.0189527 0.0290063 -0.00765723 0.0148584 0.0297087 -0.00417057 0.0165141 
0.0168149 -0.0248447 0.0210164 0.0201962 -0.0221837 0.0234958 0.0168154 -0.0248444 0.025987 
0.0220698 -0.0203205 0.00801502 0.0201617 -0.022215 0.0122148 0.0184216 -0.023678 0.00800211 
-0.0199921 0.0223677 0.018658 -0.0229688 0.0192985 0.0163009 -0.0229508 0.01932 0.0211973 
-0.0274537 0.0120952 0.0163474 -0.0289079 0.00802077 0.0137396 -0.0289058 0.00802844 0.018693 
0.0285006 -0.00936554 0.0118068 0.0270287 -0.0130173 0.0114255 0.0274732 -0.0120509 0.0080134 
0.0277133 -0.011488 0.0157469 0.0290063 -0.00765723 0.0148584 0.0289195 -0.007979 0.0189527 
-0.0192 -0.0230512 0.018629 -0.0222638 -0.0201078 0.0161301 -0.0192177 -0.0230365 0.0136558 
0.0285006 -0.00936554 0.0118068 0.0290063 -0.00765723 0.0148584 0.0277133 -0.011488 0.0157469 
-1.49662e-14 0.03 0.0080134 0.00247738 0.0298975 0.0105581 0.00494465 0.0295897 0.00798478 
0.029082 -0.00736456 0.0080134 0.029756 -0.00381809 0.00742296 0.0295896 -0.00494546 0.0115477 
-0.0297561 0.00381799 0.0112549 -0.0299998 0.000100872 0.0104372 -0.029998 -0.000345801 0.0142351 
0.0295908 -0.00493784 0.00372368 0.029756 -0.00381809 0.00742296 0.029082 -0.00736456 0.0080134 
-0.0299026 -0.00241541 0.00776079 -0.0299998 0.000100872 0.0104372 -0.0298975 0.00247738 0.00720004 
0.00371136 0.0297695 0.0138571 0.00247738 0.0298975 0.0105581 -0.000625354 0.0299935 0.0121126 
-0.0222638 -0.0201078 0.0161301 -0.0220848 -0.0203042 0.0110766 -0.0192177 -0.0230365 0.0136558 
-0.0199921 0.0223677 0.018658 -0.0165482 0.0250231 0.0211702 -0.0165492 0.0250225 0.0162468 
0.03 -7.34788e-18 0.00872368 0.0297216 0.00407725 0.00768521 0.0296875 0.00431884 0.0112237 
0.0277133 -0.011488 0.0157469 0.0270287 -0.0130173 0.0114255 0.0285006 -0.00936554 0.0118068 
-0.0119139 -0.0275329 0.0235603 -0.0157275 -0.0255469 0.0210905 -0.011914 -0.0275328 0.0185429 
0.0120509 -0.0274732 0.00372368 0.00974098 -0.0283745 0.00688146 0.00736456 -0.029082 0.00372368 
-0.00459593 0.0296459 0.0237154 -0.000355799 0.0299979 0.0261953 -0.00037666 0.0299976 0.021271 
-0.0199638 0.022393 0.0236683 -0.0199921 0.0223677 0.018658 -0.0229508 0.01932 0.0211973 
0.0295896 -0.00494546 0.0115477 0.029756 -0.00381809 0.00742296 0.03 -7.34788e-18 0.00872368 
-0.0288725 -0.00814748 0.00858375 -0.027387 -0.0122454 0.00707743 -0.0271708 -0.012718 0.0110803 
0.0231358 -0.0190981 0.0209658 0.0256076 -0.0156285 0.0184942 0.0255524 -0.0157187 0.0234458 
-0.0253407 0.0160578 0.0138104 -0.0273354 0.0123603 0.0120413 -0.0274537 0.0120952 0.0163474 
0.000599139 -0.029994 0.0210449 0.00492562 -0.0295929 0.0235234 0.000648215 -0.029993 0.0260224 
-0.0199921 0.0223677 0.018658 -0.0201231 0.02225 0.0128537 -0.0229688 0.0192985 0.0163009 
-0.0164084 -0.025115 0.00372368 -0.0142657 -0.0263911 0.00801434 -0.0184264 -0.0236742 0.0080134 
0.00247738 -0.0298975 0.00372368 1.0107e-16 -0.03 0.00704273 -0.00247738 -0.0298975 0.00372368 
-0.0124321 0.0273028 0.0122857 -0.00817694 0.0288641 0.0118199 -0.00974098 0.0283745 0.0080134 
0.0287579 0.00854315 0.0237095 0.029686 0.0043293 0.0262152 0.0296875 0.00431884 0.0212237 
-0.0203184 -0.0220717 0.00372368 -0.0220717 -0.0203184 0.00704838 -0.0236742 -0.0184264 0.00372368 
0.0289467 0.00787963 0.0083766 0.0274391 0.0121284 0.00711655 0.0272354 0.0125791 0.0112398 
-0.0270698 -0.0129316 0.0260981 -0.027085 -0.0128997 0.0211031 -0.0249409 -0.0166719 0.0235979 
-0.000422135 0.029997 0.0164792 -0.000625354 0.0299935 0.0121126 -0.00461575 0.0296428 0.0137833 
-0.00490727 0.0295959 0.00814892 -1.49662e-14 0.03 0.0080134 -0.00247738 0.0298975 0.00372368 
-0.0263842 -0.0142784 0.00372368 -0.027387 -0.0122454 0.00707743 -0.0283745 -0.00974098 0.00372368 
0.0297087 -0.00417057 0.0165141 0.0290063 -0.00765723 0.0148584 0.0295896 -0.00494546 0.0115477 
0.0203184 0.0220717 0.00372368 0.0220717 0.0203184 0.00711047 0.0236742 0.0184264 0.00372368 
0.0263842 0.0142784 0.00372368 0.0274391 0.0121284 0.00711655 0.0283745 0.00974098 0.00372368 
0.0254329 -0.0159112 0.0137165 0.0270287 -0.0130173 0.0114255 0.0277133 -0.011488 0.0157469 
-0.0229508 0.01932 0.0211973 -0.0254724 0.0158479 0.0236636 -0.0229534 0.0193168 0.0261475 
-0.03 -6.29394e-17 0.00372368 -0.0298975 0.00247738 0.00720004 -0.0295908 0.00493784 0.00372368 
-0.00974487 -0.0283732 0.00801415 -0.0142657 -0.0263911 0.00801434 -0.0120509 -0.0274732 0.00372368 
0.0231666 -0.0190606 0.01603 0.0230385 -0.0192153 0.0118296 0.0254329 -0.0159112 0.0137165 
-0.0283745 -0.00974098 0.00372368 -0.027387 -0.0122454 0.00707743 -0.0288725 -0.00814748 0.00858375 
-0.0229688 0.0192985 0.0163009 -0.0228381 0.019453 0.0122199 -0.0253407 0.0160578 0.0138104 
-0.0229508 0.01932 0.0211973 -0.0254673 0.0158561 0.0187126 -0.0254724 0.0158479 0.0236636 
-0.00461575 0.0296428 0.0137833 -0.00817694 0.0288641 0.0118199 -0.00853274 0.028761 0.0162184 
-0.0192177 -0.0230365 0.0136558 -0.0157145 -0.0255549 0.0120458 -0.0157306 -0.025545 0.0161277 
-0.0274685 0.0120615 0.0212071 -0.0274537 0.0120952 0.0163474 -0.0289058 0.00802844 0.018693 
0.0131895 -0.0269451 0.0135859 0.0165149 -0.0250451 0.0116996 0.0168138 -0.0248454 0.0160575 
0.0078534 0.0289538 0.0162939 0.00701649 0.0291679 0.0118383 0.00371136 0.0297695 0.0138571 
-0.00788936 -0.0289441 0.0162391 -0.00801402 -0.0289098 0.0120244 -0.00385588 -0.0297512 0.013628 
0.0283745 0.00974098 0.00372368 0.0274391 0.0121284 0.00711655 0.0289467 0.00787963 0.0083766 
-0.0274685 0.0120615 0.0212071 -0.0289058 0.00802844 0.018693 -0.0289098 0.00801405 0.0236503 
0.00736456 -0.029082 0.00372368 0.00493784 -0.0295908 0.0080134 0.00247738 -0.0298975 0.00372368 
0.0220698 -0.0203205 0.00801502 0.0230385 -0.0192153 0.0118296 0.0201617 -0.022215 0.0122148 
0.0184216 -0.023678 0.00800211 0.0165149 -0.0250451 0.0116996 0.0142784 -0.0263842 0.0080134 
0.00388603 0.0297472 0.0237257 0.00800073 0.0289135 0.0212366 0.0037865 0.0297601 0.0188171 
-0.0296425 -0.00461751 0.016282 -0.0296896 -0.00430411 0.0117468 -0.0287453 -0.00858536 0.0136414 
-0.0254724 0.0158479 0.0236636 -0.0274685 0.0120615 0.0212071 -0.0274736 0.0120499 0.02614 
-0.0236742 -0.0184264 0.00372368 -0.0250481 -0.0165103 0.00787589 -0.0263842 -0.0142784 0.00372368 
-0.0250481 -0.0165103 0.00787589 -0.027387 -0.0122454 0.00707743 -0.0263842 -0.0142784 0.00372368 
0.0164084 -0.025115 0.00372368 0.0142784 -0.0263842 0.0080134 0.0120509 -0.0274732 0.00372368 
-0.00493784 -0.0295908 0.0080134 -0.00801402 -0.0289098 0.0120244 -0.00974487 -0.0283732 0.00801415 
-0.0184264 0.0236742 0.0080134 -0.0164084 0.025115 0.0117569 -0.0142875 0.0263793 0.00800272 
0.0277133 -0.011488 0.0157469 0.0289195 -0.007979 0.0189527 0.0275305 -0.0119195 0.0210067 
-0.0289058 0.00802844 0.018693 -0.0297559 0.00381921 0.0162292 -0.0297569 0.00381178 0.0211682 
-0.0222638 -0.0201078 0.0161301 -0.0249482 -0.016661 0.0134522 -0.0220848 -0.0203042 0.0110766 
-0.027085 -0.0128997 0.0211031 -0.0249489 -0.0166599 0.0185869 -0.0249409 -0.0166719 0.0235979 
0.0192678 0.0229946 0.0137266 0.0157587 0.0255277 0.0121769 0.015885 0.0254493 0.0163686 
-0.0229688 0.0192985 0.0163009 -0.0254673 0.0158561 0.0187126 -0.0229508 0.01932 0.0211973 
0.0251416 -0.0163677 0.00809909 0.0230385 -0.0192153 0.0118296 0.0220698 -0.0203205 0.00801502 
0.0274732 -0.0120509 0.0080134 0.0270287 -0.0130173 0.0114255 0.0251416 -0.0163677 0.00809909 
0.0142805 0.0263831 0.00801425 0.0157587 0.0255277 0.0121769 0.0184264 0.0236742 0.0080134 
-0.0297559 0.00381921 0.0162292 -0.029998 -0.000345801 0.0142351 -0.029997 -0.000423074 0.0187845 
-0.0286483 -0.00890377 0.023627 -0.029632 -0.0046846 0.0211819 -0.0286771 -0.00881029 0.0186488 
-0.0142657 -0.0263911 0.00801434 -0.0157145 -0.0255549 0.0120458 -0.0184264 -0.0236742 0.0080134 
-0.00853274 0.028761 0.0162184 -0.00817694 0.0288641 0.0118199 -0.0124321 0.0273028 0.0122857 
-0.0286483 -0.00890377 0.023627 -0.0286771 -0.00881029 0.0186488 -0.027085 -0.0128997 0.0211031 
0.0288726 -0.00814691 0.0237607 0.027449 -0.012106 0.0259801 0.0275305 -0.0119195 0.0210067 
-0.0270698 -0.0129316 0.0260981 -0.0286483 -0.00890377 0.023627 -0.027085 -0.0128997 0.0211031 
0.0250538 0.0165017 0.00784534 0.0274391 0.0121284 0.00711655 0.0263842 0.0142784 0.00372368 
-0.0297559 0.00381921 0.0162292 -0.0297561 0.00381799 0.0112549 -0.029998 -0.000345801 0.0142351 
-0.0249489 -0.0166599 0.0185869 -0.0222962 -0.0200718 0.0211075 -0.0249409 -0.0166719 0.0235979 
-0.00787846 -0.028947 0.0210968 -0.0119139 -0.0275329 0.0235603 -0.011914 -0.0275328 0.0185429 
0.029082 -0.00736456 0.0080134 0.0285006 -0.00936554 0.0118068 0.0274732 -0.0120509 0.0080134 
0.03 -7.34788e-18 0.00372368 0.029756 -0.00381809 0.00742296 0.0295908 -0.00493784 0.00372368 
0.03 -7.34788e-18 0.00872368 0.029756 -0.00381809 0.00742296 0.03 -7.34788e-18 0.00372368 
-0.0271708 -0.012718 0.0110803 -0.027387 -0.0122454 0.00707743 -0.0250481 -0.0165103 0.00787589 
-0.0299964 -0.000462494 0.02366 -0.0297578 0.00380405 0.0261258 -0.0297569 0.00381178 0.0211682 
0.0297176 -0.00410653 0.021341 0.0289195 -0.007979 0.0189527 0.0297087 -0.00417057 0.0165141 
0.0142784 -0.0263842 0.0080134 0.00974098 -0.0283745 0.00688146 0.0120509 -0.0274732 0.00372368 
-0.0274685 0.0120615 0.0212071 -0.0289098 0.00801405 0.0236503 -0.0274736 0.0120499 0.02614 
0.00736456 -0.029082 0.00372368 0.00974098 -0.0283745 0.00688146 0.00493784 -0.0295908 0.0080134 
0.0201617 -0.022215 0.0122148 0.0165149 -0.0250451 0.0116996 0.0184216 -0.023678 0.00800211 
0.0296875 0.00431884 0.0112237 0.0297216 0.00407725 0.00768521 0.0289467 0.00787963 0.0083766 
0.0295908 0.00493784 0.00372368 0.0297216 0.00407725 0.00768521 0.03 -7.34788e-18 0.00372368 
-0.00787846 -0.028947 0.0210968 -0.00786309 -0.0289512 0.0260458 -0.0119139 -0.0275329 0.0235603 
0.03 -7.34788e-18 0.00372368 0.0297216 0.00407725 0.00768521 0.03 -7.34788e-18 0.00872368 
-0.0142875 0.0263793 0.00800272 -0.00974098 0.0283745 0.0080134 -0.0120509 0.0274732 0.00372368 
0.00493784 -0.0295908 0.0080134 1.0107e-16 -0.03 0.00704273 0.00247738 -0.0298975 0.00372368 
-0.0289058 0.00802844 0.018693 -0.0297569 0.00381178 0.0211682 -0.0289098 0.00801405 0.0236503 
-0.0274537 0.0120952 0.0163474 -0.0273354 0.0123603 0.0120413 -0.0289079 0.00802077 0.0137396 
0.00494465 0.0295897 0.00798478 0.00701649 0.0291679 0.0118383 0.00977164 0.028364 0.00800666 
-0.00459593 0.0296459 0.0237154 -0.00456663 0.0296504 0.018749 -0.00871042 0.0287076 0.0212002 
-0.00247738 -0.0298975 0.00372368 1.0107e-16 -0.03 0.00704273 -0.00493784 -0.0295908 0.0080134 
0.000508707 -0.0299957 0.0160298 0.00489992 -0.0295971 0.0133315 0.00490989 -0.0295955 0.0184994 
0.0120559 0.027471 0.0186337 0.0120283 0.0274831 0.013095 0.0078534 0.0289538 0.0162939 
-0.0236742 -0.0184264 0.00372368 -0.0220717 -0.0203184 0.00704838 -0.0250481 -0.0165103 0.00787589 
-0.0184264 -0.0236742 0.0080134 -0.0220717 -0.0203184 0.00704838 -0.0203184 -0.0220717 0.00372368 
-0.00037666 0.0299976 0.021271 -0.000422135 0.029997 0.0164792 -0.00456663 0.0296504 0.018749 
-0.00974098 0.0283745 0.0080134 -0.00817694 0.0288641 0.0118199 -0.00490727 0.0295959 0.00814892 
0.0236742 0.0184264 0.00372368 0.0220717 0.0203184 0.00711047 0.0250538 0.0165017 0.00784534 
0.0184264 0.0236742 0.0080134 0.0220717 0.0203184 0.00711047 0.0203184 0.0220717 0.00372368 
-0.0297559 0.00381921 0.0162292 -0.029997 -0.000423074 0.0187845 -0.0297569 0.00381178 0.0211682 
0.00371136 0.0297695 0.0138571 -0.000625354 0.0299935 0.0121126 -0.000422135 0.029997 0.0164792 
-0.029632 -0.0046846 0.0211819 -0.0296425 -0.00461751 0.016282 -0.0286771 -0.00881029 0.0186488 
0.0168138 -0.0248454 0.0160575 0.0201941 -0.0221856 0.0183604 0.0168149 -0.0248447 0.0210164 
-0.029998 -0.000345801 0.0142351 -0.0296896 -0.00430411 0.0117468 -0.0296425 -0.00461751 0.016282 
-0.0296896 -0.00430411 0.0117468 -0.0299998 0.000100872 0.0104372 -0.0299026 -0.00241541 0.00776079 
-0.0288894 0.00808717 0.0079903 -0.0298975 0.00247738 0.00720004 -0.0297561 0.00381799 0.0112549 
-0.00037666 0.0299976 0.021271 0.00388603 0.0297472 0.0237257 0.0037865 0.0297601 0.0188171 
-0.0299026 -0.00241541 0.00776079 -0.0298975 0.00247738 0.00720004 -0.03 -6.29394e-17 0.00372368 
-0.0201231 0.02225 0.0128537 -0.0228381 0.019453 0.0122199 -0.0229688 0.0192985 0.0163009 
-0.0165492 0.0250225 0.0162468 -0.0164084 0.025115 0.0117569 -0.0201231 0.02225 0.0128537 
-0.0157306 -0.025545 0.0161277 -0.0157145 -0.0255549 0.0120458 -0.0119911 -0.0274993 0.0129878 
-0.0295908 0.00493784 0.00372368 -0.0298975 0.00247738 0.00720004 -0.0288894 0.00808717 0.0079903 
0.00493784 -0.0295908 0.0080134 0.00974098 -0.0283745 0.00688146 0.00963764 -0.0284098 0.010842 
-0.0142875 0.0263793 0.00800272 -0.0124321 0.0273028 0.0122857 -0.00974098 0.0283745 0.0080134 
0.0120283 0.0274831 0.013095 0.00701649 0.0291679 0.0118383 0.0078534 0.0289538 0.0162939 
-0.0119911 -0.0274993 0.0129878 -0.00801402 -0.0289098 0.0120244 -0.00788936 -0.0289441 0.0162391 
0.0297087 -0.00417057 0.0165141 0.0295896 -0.00494546 0.0115477 0.03 -7.34788e-18 0.0137237 
0.015885 0.0254493 0.0163686 0.0157587 0.0255277 0.0121769 0.0120283 0.0274831 0.013095 
0.0275305 -0.0119195 0.0210067 0.027449 -0.012106 0.0259801 0.0255524 -0.0157187 0.0234458 
-0.025115 0.0164084 0.0080134 -0.0228381 0.019453 0.0122199 -0.022056 0.0203355 0.00802677 
-0.0142875 0.0263793 0.00800272 -0.0164084 0.025115 0.0117569 -0.0124321 0.0273028 0.0122857 
-0.0287453 -0.00858536 0.0136414 -0.0296896 -0.00430411 0.0117468 -0.0288725 -0.00814748 0.00858375 
-0.029998 -0.000345801 0.0142351 -0.0299998 0.000100872 0.0104372 -0.0296896 -0.00430411 0.0117468 
0.00701649 0.0291679 0.0118383 0.00247738 0.0298975 0.0105581 0.00371136 0.0297695 0.0138571 
0.0297135 -0.00413601 0.0262524 0.0288726 -0.00814691 0.0237607 0.0297176 -0.00410653 0.021341 
0.03 -7.34788e-18 0.0137237 0.0295896 -0.00494546 0.0115477 0.03 -7.34788e-18 0.00872368 
0.00494465 0.0295897 0.00798478 0.00247738 0.0298975 0.0105581 0.00701649 0.0291679 0.0118383 
-0.0249409 -0.0166719 0.0235979 -0.0222962 -0.0200718 0.0211075 -0.0222981 -0.0200697 0.0260847 
-0.0289058 0.00802844 0.018693 -0.0289079 0.00802077 0.0137396 -0.0297559 0.00381921 0.0162292 
0.0263842 -0.0142784 0.00372368 0.0274732 -0.0120509 0.0080134 0.0251416 -0.0163677 0.00809909 
0.0250538 0.0165017 0.00784534 0.0220717 0.0203184 0.00711047 0.0222062 0.0201714 0.0111275 
0.000157307 -0.0299996 0.0110382 1.0107e-16 -0.03 0.00704273 0.00493784 -0.0295908 0.0080134 
0.00247738 0.0298975 0.00372368 -1.49662e-14 0.03 0.0080134 0.00494465 0.0295897 0.00798478 
0.0272354 0.0125791 0.0112398 0.0274391 0.0121284 0.00711655 0.0250538 0.0165017 0.00784534 
-0.00736456 0.029082 0.00372368 -0.00974098 0.0283745 0.0080134 -0.00490727 0.0295959 0.00814892 
-0.0283745 0.00974098 0.00372368 -0.0288894 0.00808717 0.0079903 -0.0273757 0.0122708 0.00788605 
0.0201617 -0.022215 0.0122148 0.0230385 -0.0192153 0.0118296 0.0231666 -0.0190606 0.01603 
0.0236742 0.0184264 0.00372368 0.0250538 0.0165017 0.00784534 0.0263842 0.0142784 0.00372368 
0.00800073 0.0289135 0.0212366 0.0078534 0.0289538 0.0162939 0.0037865 0.0297601 0.0188171 
-0.0164084 0.025115 0.00372368 -0.0142875 0.0263793 0.00800272 -0.0120509 0.0274732 0.00372368 
-0.0164084 -0.025115 0.00372368 -0.0184264 -0.0236742 0.0080134 -0.0203184 -0.0220717 0.00372368 
-0.0263842 0.0142784 0.00372368 -0.025115 0.0164084 0.0080134 -0.0236742 0.0184264 0.00372368 
-0.0120509 -0.0274732 0.00372368 -0.0142657 -0.0263911 0.00801434 -0.0164084 -0.025115 0.00372368 
-0.0203184 0.0220717 0.00372368 -0.0184264 0.0236742 0.0080134 -0.0164084 0.025115 0.00372368 
-0.0236742 0.0184264 0.00372368 -0.025115 0.0164084 0.0080134 -0.022056 0.0203355 0.00802677 
-0.0164084 0.025115 0.00372368 -0.0184264 0.0236742 0.0080134 -0.0142875 0.0263793 0.00800272 
-0.022056 0.0203355 0.00802677 -0.0184264 0.0236742 0.0080134 -0.0203184 0.0220717 0.00372368 
-0.0273757 0.0122708 0.00788605 -0.025115 0.0164084 0.0080134 -0.0263842 0.0142784 0.00372368 
0.0120559 0.027471 0.0186337 0.0158958 0.0254425 0.0212311 0.015885 0.0254493 0.0163686 
0.00247738 0.0298975 0.00372368 0.00494465 0.0295897 0.00798478 0.00736456 0.029082 0.00372368 
-0.0236742 0.0184264 0.00372368 -0.022056 0.0203355 0.00802677 -0.0203184 0.0220717 0.00372368 
-0.0283745 0.00974098 0.00372368 -0.0273757 0.0122708 0.00788605 -0.0263842 0.0142784 0.00372368 
-0.00736456 0.029082 0.00372368 -0.00490727 0.0295959 0.00814892 -0.00247738 0.0298975 0.00372368 
-0.00247738 -0.0298975 0.00372368 -0.00493784 -0.0295908 0.0080134 -0.00736456 -0.029082 0.00372368 
-0.0295908 0.00493784 0.00372368 -0.0288894 0.00808717 0.0079903 -0.0283745 0.00974098 0.00372368 
0.0255524 -0.0157187 0.0234458 0.0255119 -0.0157843 0.0284423 0.023091 -0.0191522 0.0259674 
0.0255524 -0.0157187 0.0234458 0.027449 -0.012106 0.0259801 0.0255119 -0.0157843 0.0284423 
0.0201962 -0.0221837 0.0234958 0.023091 -0.0191522 0.0259674 0.0201675 -0.0222097 0.0284603 
0.0201962 -0.0221837 0.0234958 0.0201675 -0.0222097 0.0284603 0.0168154 -0.0248444 0.025987 
0.00911884 -0.0285805 0.0260025 0.0131134 -0.0269822 0.0235191 0.0131129 -0.0269825 0.0284834 
0.0131134 -0.0269822 0.0235191 0.0168154 -0.0248444 0.025987 0.0131129 -0.0269825 0.0284834 
0.000648215 -0.029993 0.0260224 0.00492562 -0.0295929 0.0235234 0.00493704 -0.029591 0.0284968 
0.00493704 -0.029591 0.0284968 0.00492562 -0.0295929 0.0235234 0.00911884 -0.0285805 0.0260025 
-0.00363806 -0.0297786 0.0285149 -0.00366495 -0.0297753 0.0235546 0.000648215 -0.029993 0.0260224 
-0.00363806 -0.0297786 0.0285149 -0.00786309 -0.0289512 0.0260458 -0.00366495 -0.0297753 0.0235546 
-0.0192045 -0.0230475 0.0235981 -0.0157219 -0.0255504 0.0260653 -0.019207 -0.0230454 0.0285603 
-0.00786309 -0.0289512 0.0260458 -0.0119095 -0.0275348 0.0285375 -0.0119139 -0.0275329 0.0235603 
-0.0119139 -0.0275329 0.0235603 -0.0119095 -0.0275348 0.0285375 -0.0157219 -0.0255504 0.0260653 
-0.0270698 -0.0129316 0.0260981 -0.0286384 -0.00893529 0.0285872 -0.0286483 -0.00890377 0.023627 
-0.024938 -0.0166762 0.0285721 -0.0270698 -0.0129316 0.0260981 -0.0249409 -0.0166719 0.0235979 
-0.0222981 -0.0200697 0.0260847 -0.0192045 -0.0230475 0.0235981 -0.019207 -0.0230454 0.0285603 
-0.024938 -0.0166762 0.0285721 -0.0249409 -0.0166719 0.0235979 -0.0222981 -0.0200697 0.0260847 
-0.0286384 -0.00893529 0.0285872 -0.029623 -0.00474124 0.0261215 -0.0286483 -0.00890377 0.023627 
-0.0299961 -0.000481185 0.0286015 -0.0299964 -0.000462494 0.02366 -0.029623 -0.00474124 0.0261215 
-0.0299961 -0.000481185 0.0286015 -0.0297578 0.00380405 0.0261258 -0.0299964 -0.000462494 0.02366 
-0.0289098 0.00801405 0.0236503 -0.0289126 0.00800396 0.0286084 -0.0274736 0.0120499 0.02614 
-0.0254724 0.0158479 0.0236636 -0.0274736 0.0120499 0.02614 -0.0254761 0.015842 0.028621 
0.0288533 -0.0082149 0.0286785 0.027449 -0.012106 0.0259801 0.0288726 -0.00814691 0.0237607 
-0.0254724 0.0158479 0.0236636 -0.0254761 0.015842 0.028621 -0.0229534 0.0193168 0.0261475 
-0.0128028 0.027131 0.0286336 -0.0127745 0.0271443 0.0236423 -0.0165507 0.0250215 0.0261434 
-0.0289098 0.00801405 0.0236503 -0.0297578 0.00380405 0.0261258 -0.0289126 0.00800396 0.0286084 
-0.00876977 0.0286896 0.0261672 -0.00461328 0.0296432 0.0286644 -0.00459593 0.0296459 0.0237154 
0.0121103 0.027447 0.0236855 0.0121525 0.0274284 0.0286683 0.0159468 0.0254106 0.026181 
0.0251274 0.0163894 0.0236812 0.0225248 0.019815 0.02618 0.025144 0.0163639 0.0286757 
-0.0199638 0.022393 0.0236683 -0.0229534 0.0193168 0.0261475 -0.0199627 0.022394 0.0286287 
-0.0128028 0.027131 0.0286336 -0.00876977 0.0286896 0.0261672 -0.0127745 0.0271443 0.0236423 
-0.0165507 0.0250215 0.0261434 -0.0199638 0.022393 0.0236683 -0.0199627 0.022394 0.0286287 
0.019454 0.0228373 0.0286678 0.0194104 0.0228744 0.023694 0.0159468 0.0254106 0.026181 
0.0225248 0.019815 0.02618 0.0194104 0.0228744 0.023694 0.019454 0.0228373 0.0286678 
0.00388603 0.0297472 0.0237257 0.00392281 0.0297424 0.0286721 0.008107 0.0288838 0.0261944 
0.0251274 0.0163894 0.0236812 0.025144 0.0163639 0.0286757 0.0272336 0.0125829 0.0261931 
-0.00461328 0.0296432 0.0286644 -0.000355799 0.0299979 0.0261953 -0.00459593 0.0296459 0.0237154 
0.0287579 0.00854315 0.0237095 0.0287571 0.00854579 0.0286915 0.029686 0.0043293 0.0262152 
0.0272336 0.0125829 0.0261931 0.0287571 0.00854579 0.0286915 0.0287579 0.00854315 0.0237095 
0.008107 0.0288838 0.0261944 0.0121525 0.0274284 0.0286683 0.0121103 0.027447 0.0236855 
-0.000355799 0.0299979 0.0261953 0.00392281 0.0297424 0.0286721 0.00388603 0.0297472 0.0237257 
0.03 -7.34788e-18 0.0237237 0.029686 0.0043293 0.0262152 0.03 -7.34788e-18 0.0287237 
0.03 -7.34788e-18 0.0287237 0.0297135 -0.00413601 0.0262524 0.03 -7.34788e-18 0.0237237 
0.0288533 -0.0082149 0.0286785 0.0288726 -0.00814691 0.0237607 0.0297135 -0.00413601 0.0262524 
0.0201675 -0.0222097 0.0284603 0.0230734 -0.0191733 0.0309384 0.0201661 -0.022211 0.0334205 
0.0289012 0.00804489 0.0794704 0.0288042 0.00838565 0.0735563 0.0272641 0.0125168 0.0759629 
0.0255119 -0.0157843 0.0284423 0.0254958 -0.0158102 0.0334212 0.0230734 -0.0191733 0.0309384 
0.0255067 -0.0157926 0.0733532 0.0274476 -0.012109 0.0759949 0.025115 -0.0164084 0.0794339 
0.0201675 -0.0222097 0.0284603 0.0201661 -0.022211 0.0334205 0.016826 -0.0248372 0.0309563 
0.0184264 0.0236742 0.0794339 0.0220706 0.0203197 0.0763932 0.0190501 0.0231753 0.0735052 
0.00493704 -0.029591 0.0284968 0.00912065 -0.02858 0.0309737 0.00494349 -0.0295899 0.0334639 
0.000658684 -0.0299928 0.0309889 0.00493704 -0.029591 0.0284968 0.00494349 -0.0295899 0.0334639 
0.0131129 -0.0269825 0.0284834 0.0131146 -0.0269816 0.0334486 0.00912065 -0.02858 0.0309737 
0.0131129 -0.0269825 0.0284834 0.016826 -0.0248372 0.0309563 0.0131146 -0.0269816 0.0334486 
0.0274476 -0.012109 0.0759949 0.0289065 -0.00802601 0.0735914 0.0289189 -0.00798104 0.0797417 
0.0255119 -0.0157843 0.0284423 0.0274305 -0.0121477 0.0309453 0.0254958 -0.0158102 0.0334212 
0.000658684 -0.0299928 0.0309889 -0.00363126 -0.0297794 0.0334795 -0.00363806 -0.0297786 0.0285149 
0.0272641 0.0125168 0.0759629 0.0274732 0.0120509 0.0801614 0.0289012 0.00804489 0.0794704 
-0.0119063 -0.0275362 0.0334998 -0.0119095 -0.0275348 0.0285375 -0.00785235 -0.0289541 0.0310047 
-0.0249343 -0.0166817 0.0732026 -0.0223143 -0.0200517 0.0750969 -0.0249996 -0.0165837 0.0792552 
0.00474583 -0.0296222 0.0794466 0.00493967 -0.0295905 0.0733704 0.00909105 -0.0285894 0.0756023 
-0.0157184 -0.0255526 0.0310295 -0.0119095 -0.0275348 0.0285375 -0.0119063 -0.0275362 0.0334998 
-0.0223018 -0.0200657 0.0310472 -0.0249357 -0.0166796 0.0335315 -0.024938 -0.0166762 0.0285721 
0.00474583 -0.0296222 0.0794466 0.000490621 -0.029996 0.07562 0.00493967 -0.0295905 0.0733704 
-0.024938 -0.0166762 0.0285721 -0.0249357 -0.0166796 0.0335315 -0.0270639 -0.012944 0.0310597 
0.0274476 -0.012109 0.0759949 0.0274732 -0.0120509 0.0800925 0.025115 -0.0164084 0.0794339 
0.0289189 -0.00798104 0.0797417 0.0289065 -0.00802601 0.0735914 0.029745 -0.00390313 0.0760806 
-0.0223018 -0.0200657 0.0310472 -0.019207 -0.0230454 0.0285603 -0.0192072 -0.0230453 0.0335192 
0.0190501 0.0231753 0.0735052 0.0154644 0.025707 0.0755395 0.0184264 0.0236742 0.0794339 
-0.019207 -0.0230454 0.0285603 -0.0157184 -0.0255526 0.0310295 -0.0192072 -0.0230453 0.0335192 
-0.00492678 0.0295927 0.079341 -0.000571711 0.0299946 0.0751555 -0.00494722 0.0295893 0.0732561 
-0.00363126 -0.0297794 0.0334795 -0.00785235 -0.0289541 0.0310047 -0.00363806 -0.0297786 0.0285149 
-0.029619 -0.00476614 0.0310743 -0.0299958 -0.000498983 0.0335569 -0.0299961 -0.000481185 0.0286015 
-0.0286384 -0.00893529 0.0285872 -0.0286333 -0.00895171 0.0335444 -0.029619 -0.00476614 0.0310743 
-0.0299958 -0.000498983 0.0335569 -0.0297591 0.00379443 0.0310817 -0.0299961 -0.000481185 0.0286015 
-0.0297941 0.00350863 0.0756704 -0.0289239 0.00796289 0.0794249 -0.0290536 0.00747574 0.0732487 
-0.0249996 -0.0165837 0.0792552 -0.0270769 -0.0129166 0.0751819 -0.0249343 -0.0166817 0.0732026 
0.025115 0.0164084 0.0794339 0.0272641 0.0125168 0.0759629 0.0250269 0.0165425 0.0735835 
0.0250269 0.0165425 0.0735835 0.0220706 0.0203197 0.0763932 0.025115 0.0164084 0.0794339 
-0.0289154 0.00799358 0.0335679 -0.0274774 0.0120413 0.0310964 -0.0289126 0.00800396 0.0286084 
-0.0289126 0.00800396 0.0286084 -0.0297591 0.00379443 0.0310817 -0.0289154 0.00799358 0.0335679 
0.0288525 -0.00821797 0.0336559 0.0274305 -0.0121477 0.0309453 0.0288533 -0.0082149 0.0286785 
0.025115 -0.0164084 0.0794339 0.0229611 -0.0193077 0.0753289 0.0255067 -0.0157926 0.0733532 
0.0289012 0.00804489 0.0794704 0.0297081 0.00417465 0.075972 0.0288042 0.00838565 0.0735563 
0.0184264 0.0236742 0.0794339 0.0220717 0.0203184 0.0804875 0.0220706 0.0203197 0.0763932 
-0.0254761 0.015842 0.028621 -0.0274774 0.0120413 0.0310964 -0.0254809 0.0158343 0.0335775 
-0.0199627 0.022394 0.0286287 -0.0229574 0.0193121 0.0311036 -0.0199674 0.0223898 0.0335894 
-0.0199627 0.022394 0.0286287 -0.0199674 0.0223898 0.0335894 -0.0165617 0.0250142 0.0311152 
-0.0128226 0.0271216 0.0336008 -0.00880102 0.02868 0.0311286 -0.0128028 0.027131 0.0286336 
-0.00880102 0.02868 0.0311286 -0.00462888 0.0296407 0.0336163 -0.00461328 0.0296432 0.0286644 
-0.0289239 0.00796289 0.0794249 -0.0278518 0.0111479 0.0756681 -0.0290536 0.00747574 0.0732487 
-0.0128226 0.0271216 0.0336008 -0.0128028 0.027131 0.0286336 -0.0165617 0.0250142 0.0311152 
-0.0254761 0.015842 0.028621 -0.0254809 0.0158343 0.0335775 -0.0229574 0.0193121 0.0311036 
-0.0286384 -0.00893529 0.0285872 -0.0270639 -0.012944 0.0310597 -0.0286333 -0.00895171 0.0335444 
0.019454 0.0228373 0.0286678 0.015987 0.0253853 0.0311479 0.0194616 0.0228308 0.0336355 
-0.0249996 -0.0165837 0.0792552 -0.0223143 -0.0200517 0.0750969 -0.0219258 -0.0204758 0.0794261 
-0.00494722 0.0295893 0.0732561 -0.00878928 0.0286836 0.0755334 -0.00492678 0.0295927 0.079341 
0.015987 0.0253853 0.0311479 0.0121525 0.0274284 0.0286683 0.0121858 0.0274136 0.0336306 
0.00392991 0.0297415 0.0336243 0.00392281 0.0297424 0.0286721 -0.000349677 0.029998 0.0311429 
0.0121858 0.0274136 0.0336306 0.0121525 0.0274284 0.0286683 0.00814182 0.028874 0.0311504 
0.019454 0.0228373 0.0286678 0.0194616 0.0228308 0.0336355 0.0225381 0.0197998 0.0311567 
0.0272358 0.0125782 0.0311655 0.0287571 0.00854569 0.0336361 0.0287571 0.00854579 0.0286915 
0.0190501 0.0231753 0.0735052 0.0220706 0.0203197 0.0763932 0.0222925 0.0200759 0.0710442 
0.0251434 0.0163649 0.0336404 0.0272358 0.0125782 0.0311655 0.025144 0.0163639 0.0286757 
0.0289189 -0.00798104 0.0797417 0.0274732 -0.0120509 0.0800925 0.0274476 -0.012109 0.0759949 
0.0225381 0.0197998 0.0311567 0.0251434 0.0163649 0.0336404 0.025144 0.0163639 0.0286757 
-0.00462888 0.0296407 0.0336163 -0.000349677 0.029998 0.0311429 -0.00461328 0.0296432 0.0286644 
0.0222925 0.0200759 0.0710442 0.0220706 0.0203197 0.0763932 0.0250269 0.0165425 0.0735835 
4.08595e-05 0.03 0.0794623 -0.000571711 0.0299946 0.0751555 -0.00492678 0.0295927 0.079341 
-0.0224533 0.019896 0.0710324 -0.0236742 0.0184264 0.0753901 -0.0203773 0.0220174 0.075429 
0.029721 -0.00408211 0.0511998 0.0297246 -0.00405578 0.0459327 0.03 -7.34788e-18 0.0487237 
0.0287571 0.00854579 0.0286915 0.0287571 0.00854569 0.0336361 0.0296875 0.00431884 0.0312237 
0.0297128 -0.00414138 0.0312188 0.0288525 -0.00821797 0.0336559 0.0288533 -0.0082149 0.0286785 
0.00392991 0.0297415 0.0336243 0.00814182 0.028874 0.0311504 0.00392281 0.0297424 0.0286721 
0.03 -7.34788e-18 0.0287237 0.0296875 0.00431884 0.0312237 0.03 -7.34788e-18 0.0337237 
0.00474583 -0.0296222 0.0794466 -0.000261222 -0.0299989 0.0799193 0.000490621 -0.029996 0.07562 
0.03 -7.34788e-18 0.0337237 0.0297128 -0.00414138 0.0312188 0.03 -7.34788e-18 0.0287237 
-0.0203773 0.0220174 0.075429 -0.0196574 0.0226625 0.0716709 -0.0224533 0.019896 0.0710324 
0.0271813 0.0126955 0.0609882 0.0287257 0.00865064 0.0636679 0.028725 0.00865285 0.0585265 
0.0255076 -0.0157913 0.0384451 0.0274671 -0.0120648 0.0410835 0.0255601 -0.015706 0.0434147 
0.028725 0.00865285 0.0585265 0.0287257 0.00865064 0.0636679 0.0296813 0.0043611 0.0611891 
-0.0271371 0.0127897 0.0714271 -0.0278518 0.0111479 0.0756681 -0.0261034 0.0147856 0.0752304 
0.0158933 0.0254441 0.0609193 0.0159356 0.0254176 0.0559603 0.012136 0.0274357 0.0584357 
0.0120857 0.0274579 0.0633714 0.0158933 0.0254441 0.0609193 0.012136 0.0274357 0.0584357 
0.03 -7.34788e-18 0.0587237 0.0296735 0.00441397 0.0560009 0.0296813 0.0043611 0.0611891 
0.0296813 0.0043611 0.0611891 0.0296735 0.00441397 0.0560009 0.028725 0.00865285 0.0585265 
0.0296673 0.00445554 0.0662326 0.0287447 0.00858747 0.0685738 0.0296632 0.00448286 0.0711714 
0.00909105 -0.0285894 0.0756023 0.00891898 -0.0286435 0.0799066 0.00474583 -0.0296222 0.0794466 
-0.0161629 -0.0252737 0.0754553 -0.0198556 -0.022489 0.0764687 -0.0191692 -0.0230769 0.0731835 
-0.0274732 -0.0120509 0.0794339 -0.0270769 -0.0129166 0.0751819 -0.0249996 -0.0165837 0.0792552 
0.0288978 -0.00805702 0.0483828 0.0288929 -0.00807454 0.0533185 0.0275499 -0.0118745 0.0507714 
0.03 -7.34788e-18 0.0437237 0.0296775 0.00438705 0.0410558 0.0296753 0.00440175 0.0461789 
0.0296753 0.00440175 0.0461789 0.0296775 0.00438705 0.0410558 0.0287363 0.00861529 0.043544 
0.0126602 -0.0271978 0.0780262 0.0155927 -0.0256294 0.0803053 0.0120509 -0.0274732 0.0837237 
0.0120509 -0.0274732 0.0837237 0.00891898 -0.0286435 0.0799066 0.0126602 -0.0271978 0.0780262 
0.0190501 0.0231753 0.0735052 0.0156247 0.0256099 0.0707327 0.0154644 0.025707 0.0755395 
-0.0220614 0.0203296 0.0794605 -0.0236742 0.0184264 0.0753901 -0.025094 0.0164405 0.0794381 
0.03 -7.34788e-18 0.0487237 0.029667 0.00445746 0.0511121 0.03 -7.34788e-18 0.0537237 
-0.0285673 -0.00916029 0.0727966 -0.0295761 -0.00502534 0.0757324 -0.0295842 -0.00497768 0.0706808 
-0.0270191 -0.0130372 0.0705902 -0.0270769 -0.0129166 0.0751819 -0.0285673 -0.00916029 0.0727966 
0.0288978 -0.00805702 0.0483828 0.0297246 -0.00405578 0.0459327 0.029721 -0.00408211 0.0511998 
0.023124 -0.0191124 0.0458748 0.025602 -0.0156377 0.048352 0.0231554 -0.0190743 0.0508333 
0.025115 0.0164084 0.0794339 0.0274732 0.0120509 0.0801614 0.0272641 0.0125168 0.0759629 
0.0271813 0.0126955 0.0609882 0.0271824 0.0126932 0.0659357 0.0287257 0.00865064 0.0636679 
0.0274305 -0.0121477 0.0309453 0.0274246 -0.012161 0.0358907 0.0254958 -0.0158102 0.0334212 
0.0272641 0.0125168 0.0759629 0.0288042 0.00838565 0.0735563 0.0271795 0.0126993 0.0709055 
0.03 -7.34788e-18 0.0537237 0.0296735 0.00441397 0.0560009 0.03 -7.34788e-18 0.0587237 
0.016826 -0.0248372 0.0309563 0.0201661 -0.022211 0.0334205 0.0168089 -0.0248488 0.035916 
0.0296632 0.00448286 0.0711714 0.0297081 0.00417465 0.075972 0.03 -7.34788e-18 0.0737237 
0.0296632 0.00448286 0.0711714 0.0287447 0.00858747 0.0685738 0.0288042 0.00838565 0.0735563 
0.03 -7.34788e-18 0.0387237 0.0296775 0.00438705 0.0410558 0.03 -7.34788e-18 0.0437237 
0.0287363 0.00861529 0.043544 0.0287337 0.00862422 0.0485241 0.0296753 0.00440175 0.0461789 
0.00386038 0.0297506 0.0733028 0.002524 0.0298936 0.0767028 0.00753375 0.0290386 0.0757509 
0.0202787 -0.0221082 0.0727342 0.0169668 -0.0247412 0.0706842 0.0202447 -0.0221394 0.0681383 
0.0288042 0.00838565 0.0735563 0.0297081 0.00417465 0.075972 0.0296632 0.00448286 0.0711714 
-0.0191692 -0.0230769 0.0731835 -0.0223143 -0.0200517 0.0750969 -0.0222811 -0.0200886 0.070583 
0.0169091 -0.0247807 0.0657154 0.0202509 -0.0221337 0.0632723 0.0202447 -0.0221394 0.0681383 
0.0202447 -0.0221394 0.0681383 0.0169668 -0.0247412 0.0706842 0.0169091 -0.0247807 0.0657154 
0.0274671 -0.0120648 0.0410835 0.0288848 -0.00810373 0.0435117 0.0275166 -0.0119515 0.0459006 
-0.0191967 -0.023054 0.0434336 -0.019191 -0.0230587 0.0483921 -0.0222885 -0.0200804 0.0459178 
0.00812989 0.0288774 0.0410684 0.00812153 0.0288798 0.0460286 0.0121708 0.0274203 0.0435559 
-0.0295761 -0.00502534 0.0757324 -0.0299995 -0.000164879 0.0767466 -0.0299917 -0.000706058 0.072884 
-0.011967 -0.0275098 0.0729297 -0.0161629 -0.0252737 0.0754553 -0.0157193 -0.025552 0.0706362 
-0.000527162 0.0299954 0.0707463 -0.000571711 0.0299946 0.0751555 0.00386038 0.0297506 0.0733028 
0.0231296 -0.0191056 0.0706762 0.0229611 -0.0193077 0.0753289 0.0202787 -0.0221082 0.0727342 
0.00974098 0.0283745 0.0794339 0.00753375 0.0290386 0.0757509 0.00499562 0.0295811 0.079466 
-0.00974098 -0.0283745 0.0794339 -0.00760666 -0.0290196 0.0754184 -0.00585665 -0.0294228 0.0794869 
0.0202509 -0.0221337 0.0632723 0.016887 -0.0247957 0.0607663 0.0202331 -0.02215 0.0583143 
0.0288042 0.00838565 0.0735563 0.0287447 0.00858747 0.0685738 0.0271795 0.0126993 0.0709055 
0.03 -7.34788e-18 0.0537237 0.029667 0.00445746 0.0511121 0.0296735 0.00441397 0.0560009 
0.0131642 -0.0269575 0.0731639 0.0171917 -0.0245855 0.075916 0.0126602 -0.0271978 0.0780262 
0.0220706 0.0203197 0.0763932 0.0220717 0.0203184 0.0804875 0.025115 0.0164084 0.0794339 
-0.00781413 -0.0289644 0.070594 -0.00760666 -0.0290196 0.0754184 -0.011967 -0.0275098 0.0729297 
-0.0298387 -0.00310698 0.0794715 -0.0295761 -0.00502534 0.0757324 -0.029082 -0.00736456 0.0794339 
0.0169091 -0.0247807 0.0657154 0.016887 -0.0247957 0.0607663 0.0202509 -0.0221337 0.0632723 
-0.0295842 -0.00497768 0.0706808 -0.0295761 -0.00502534 0.0757324 -0.0299917 -0.000706058 0.072884 
0.0202331 -0.02215 0.0583143 0.0202263 -0.0221562 0.0533218 0.0231557 -0.0190739 0.0558238 
0.0220504 -0.0203416 0.0794635 0.0229611 -0.0193077 0.0753289 0.025115 -0.0164084 0.0794339 
0.0154644 0.025707 0.0755395 0.0142784 0.0263842 0.0798948 0.0184264 0.0236742 0.0794339 
0.03 -7.34788e-18 0.0387237 0.0296729 0.00441821 0.03614 0.0296775 0.00438705 0.0410558 
0.03 -7.34788e-18 0.0537237 0.029721 -0.00408211 0.0511998 0.03 -7.34788e-18 0.0487237 
0.0168646 -0.024811 0.0558068 0.0202263 -0.0221562 0.0533218 0.0202331 -0.02215 0.0583143 
0.0156247 0.0256099 0.0707327 0.0118367 0.0275662 0.072923 0.0154644 0.025707 0.0755395 
-0.0130304 0.0270224 0.0754793 -0.0166893 0.0249292 0.0753995 -0.0143363 0.0263528 0.0794689 
-0.0184461 0.0236589 0.0794694 -0.0166893 0.0249292 0.0753995 -0.0203773 0.0220174 0.075429 
0.0158025 0.0255006 0.0658415 0.0156247 0.0256099 0.0707327 0.0192161 0.0230378 0.0684235 
0.0288784 -0.0081264 0.0385865 0.0288848 -0.00810373 0.0435117 0.0274671 -0.0120648 0.0410835 
0.0297263 -0.00404294 0.0411233 0.0288848 -0.00810373 0.0435117 0.0288784 -0.0081264 0.0385865 
0.0296735 0.00441397 0.0560009 0.029667 0.00445746 0.0511121 0.028733 0.0086264 0.0535326 
0.0230734 -0.0191733 0.0309384 0.0254958 -0.0158102 0.0334212 0.0230725 -0.0191745 0.035904 
0.0274671 -0.0120648 0.0410835 0.0274246 -0.012161 0.0358907 0.0288784 -0.0081264 0.0385865 
0.027449 -0.012106 0.0259801 0.0274305 -0.0121477 0.0309453 0.0255119 -0.0157843 0.0284423 
0.03 -7.34788e-18 0.0737237 0.0297081 0.00417465 0.075972 0.03 -7.34788e-18 0.0787237 
-0.025094 0.0164405 0.0794381 -0.0236742 0.0184264 0.0753901 -0.0261034 0.0147856 0.0752304 
-0.0203773 0.0220174 0.075429 -0.0236742 0.0184264 0.0753901 -0.0220614 0.0203296 0.0794605 
0.0296813 0.0043611 0.0611891 0.0287257 0.00865064 0.0636679 0.0296673 0.00445554 0.0662326 
0.0271824 0.0126932 0.0659357 0.0287447 0.00858747 0.0685738 0.0287257 0.00865064 0.0636679 
0.016826 -0.0248372 0.0309563 0.0168089 -0.0248488 0.035916 0.0131146 -0.0269816 0.0334486 
0.0297263 -0.00404294 0.0411233 0.0288784 -0.0081264 0.0385865 0.0297233 -0.00406542 0.0361855 
0.02249 0.0198545 0.0509959 0.019423 0.0228637 0.0485118 0.0194115 0.0228734 0.0534805 
0.0202787 -0.0221082 0.0727342 0.0171917 -0.0245855 0.075916 0.0169668 -0.0247412 0.0706842 
0.0201813 -0.0221972 0.0433779 0.023124 -0.0191124 0.0458748 0.0202026 -0.0221778 0.0483515 
-0.0274804 0.0120344 0.0509322 -0.0289216 0.0079713 0.0533978 -0.0274681 0.0120624 0.0559008 
0.0297263 -0.00404294 0.0411233 0.0297233 -0.00406542 0.0361855 0.03 -7.34788e-18 0.0387237 
-0.0254839 0.0158294 0.0484552 -0.0229573 0.0193123 0.0509337 -0.022966 0.0193019 0.04598 
0.0296775 0.00438705 0.0410558 0.0296729 0.00441821 0.03614 0.0287431 0.00859267 0.0385941 
-0.0274804 0.0120344 0.0509322 -0.0254683 0.0158546 0.0534164 -0.0254839 0.0158294 0.0484552 
-0.0274681 0.0120624 0.0559008 -0.0254683 0.0158546 0.0534164 -0.0274804 0.0120344 0.0509322 
0.0168154 -0.0248444 0.025987 0.016826 -0.0248372 0.0309563 0.0131129 -0.0269825 0.0284834 
0.0201661 -0.022211 0.0334205 0.0230734 -0.0191733 0.0309384 0.0230725 -0.0191745 0.035904 
-0.02891 0.00801312 0.0583693 -0.0289101 0.0080129 0.0633262 -0.0274414 0.0121231 0.060881 
-0.024918 -0.0167061 0.0583219 -0.0270481 -0.012977 0.0558473 -0.0249214 -0.016701 0.0533616 
0.0271795 0.0126993 0.0709055 0.0287447 0.00858747 0.0685738 0.0271824 0.0126932 0.0659357 
0.03 -7.34788e-18 0.0687237 0.0297315 -0.00400457 0.0710973 0.0297211 -0.00408097 0.0660973 
0.0296813 0.0043611 0.0611891 0.0296673 0.00445554 0.0662326 0.03 -7.34788e-18 0.0637237 
0.0131146 -0.0269816 0.0334486 0.00912428 -0.0285788 0.0359395 0.00912065 -0.02858 0.0309737 
-0.0270481 -0.012977 0.0558473 -0.0270508 -0.0129712 0.0508874 -0.0249214 -0.016701 0.0533616 
-0.0254683 0.0158546 0.0534164 -0.0229573 0.0193123 0.0509337 -0.0254839 0.0158294 0.0484552 
-0.0286238 -0.00898217 0.0533728 -0.0286202 -0.00899352 0.0583297 -0.0296122 -0.00480829 0.0558592 
0.0119491 0.0275176 0.0682476 0.0118367 0.0275662 0.072923 0.0156247 0.0256099 0.0707327 
-0.0143363 0.0263528 0.0794689 -0.0166893 0.0249292 0.0753995 -0.0184461 0.0236589 0.0794694 
0.0119491 0.0275176 0.0682476 0.0156247 0.0256099 0.0707327 0.0158025 0.0255006 0.0658415 
0.0287337 0.00862422 0.0485241 0.029667 0.00445746 0.0511121 0.0296753 0.00440175 0.0461789 
-0.0261034 0.0147856 0.0752304 -0.0251556 0.0163461 0.0721049 -0.0271371 0.0127897 0.0714271 
0.000666027 -0.0299926 0.0359545 0.000658684 -0.0299928 0.0309889 0.00494349 -0.0295899 0.0334639 
-0.0296132 -0.00480194 0.0508993 -0.0286238 -0.00898217 0.0533728 -0.0296122 -0.00480829 0.0558592 
0.0194115 0.0228734 0.0534805 0.019423 0.0228637 0.0485118 0.0159489 0.0254093 0.0509967 
0.00753375 0.0290386 0.0757509 0.002524 0.0298936 0.0767028 0.00499562 0.0295811 0.079466 
0.028733 0.0086264 0.0535326 0.029667 0.00445746 0.0511121 0.0287337 0.00862422 0.0485241 
-0.019186 -0.0230629 0.0533534 -0.019191 -0.0230587 0.0483921 -0.0156996 -0.0255641 0.0508681 
0.029745 -0.00390313 0.0760806 0.0289065 -0.00802601 0.0735914 0.0297315 -0.00400457 0.0710973 
0.000666027 -0.0299926 0.0359545 -0.00363126 -0.0297794 0.0334795 0.000658684 -0.0299928 0.0309889 
-0.00784773 -0.0289554 0.03597 -0.00785235 -0.0289541 0.0310047 -0.00363126 -0.0297794 0.0334795 
0.0192161 0.0230378 0.0684235 0.0156247 0.0256099 0.0707327 0.0190501 0.0231753 0.0735052 
-0.0157184 -0.0255526 0.0310295 -0.0119063 -0.0275362 0.0334998 -0.0157166 -0.0255536 0.0359894 
0.0288525 -0.00821797 0.0336559 0.0274246 -0.012161 0.0358907 0.0274305 -0.0121477 0.0309453 
-0.0274681 0.0120624 0.0559008 -0.02891 0.00801312 0.0583693 -0.0274414 0.0121231 0.060881 
0.00795195 0.0289269 0.0707407 0.0118367 0.0275662 0.072923 0.0119491 0.0275176 0.0682476 
-0.0289216 0.0079713 0.0533978 -0.02891 0.00801312 0.0583693 -0.0274681 0.0120624 0.0559008 
-0.00784773 -0.0289554 0.03597 -0.0119063 -0.0275362 0.0334998 -0.00785235 -0.0289541 0.0310047 
-0.0249214 -0.016701 0.0533616 -0.0222802 -0.0200897 0.0558388 -0.024918 -0.0167061 0.0583219 
0.0225134 0.0198279 0.0410726 0.0251298 0.0163858 0.0385893 0.0225299 0.0198092 0.036118 
0.0297181 -0.0041029 0.0561378 0.029721 -0.00408211 0.0511998 0.03 -7.34788e-18 0.0537237 
-0.0222847 -0.0200847 0.0508768 -0.0222802 -0.0200897 0.0558388 -0.0249214 -0.016701 0.0533616 
-0.0183217 -0.0237553 0.079455 -0.0161629 -0.0252737 0.0754553 -0.0142784 -0.0263842 0.0794339 
0.03 -7.34788e-18 0.0787237 0.029745 -0.00390313 0.0760806 0.03 -7.34788e-18 0.0737237 
-0.0128847 0.0270922 0.0534316 -0.0165939 0.0249929 0.050946 -0.0166091 0.0249828 0.0558985 
-0.0222847 -0.0200847 0.0508768 -0.019186 -0.0230629 0.0533534 -0.0222802 -0.0200897 0.0558388 
0.0194517 0.0228393 0.0385977 0.0225134 0.0198279 0.0410726 0.0225299 0.0198092 0.036118 
0.029745 -0.00390313 0.0760806 0.0297315 -0.00400457 0.0710973 0.03 -7.34788e-18 0.0737237 
0.023169 -0.0190578 0.0607971 0.0202331 -0.02215 0.0583143 0.0231557 -0.0190739 0.0558238 
0.0287431 0.00859267 0.0385941 0.0272251 0.0126013 0.0361099 0.0272085 0.0126372 0.0410563 
0.03 -7.34788e-18 0.0687237 0.0296673 0.00445554 0.0662326 0.0296632 0.00448286 0.0711714 
0.0272085 0.0126372 0.0410563 0.0272251 0.0126013 0.0361099 0.0251298 0.0163858 0.0385893 
-0.0270481 -0.012977 0.0558473 -0.0286202 -0.00899352 0.0583297 -0.0286238 -0.00898217 0.0533728 
-0.0270481 -0.012977 0.0558473 -0.0286238 -0.00898217 0.0533728 -0.0270508 -0.0129712 0.0508874 
0.03 -7.34788e-18 0.0687237 0.0296632 0.00448286 0.0711714 0.03 -7.34788e-18 0.0737237 
0.03 -7.34788e-18 0.0587237 0.0297208 -0.00408319 0.0610898 0.0297181 -0.0041029 0.0561378 
-0.0222847 -0.0200847 0.0508768 -0.019191 -0.0230587 0.0483921 -0.019186 -0.0230629 0.0533534 
-0.0157184 -0.0255526 0.0310295 -0.0157166 -0.0255536 0.0359894 -0.0192072 -0.0230453 0.0335192 
-0.0299953 -0.000529141 0.0533836 -0.0296132 -0.00480194 0.0508993 -0.0296122 -0.00480829 0.0558592 
0.0251119 0.0164132 0.0435417 0.0251298 0.0163858 0.0385893 0.0225134 0.0198279 0.0410726 
0.019435 0.0228534 0.0435545 0.0225134 0.0198279 0.0410726 0.0194517 0.0228393 0.0385977 
0.00912065 -0.02858 0.0309737 0.00912428 -0.0285788 0.0359395 0.00494349 -0.0295899 0.0334639 
-0.0253617 0.0160245 0.0633268 -0.0273778 0.0122661 0.0659382 -0.0252092 0.0162634 0.0681355 
-0.0165818 0.0250009 0.0459919 -0.0128532 0.0271071 0.0484793 -0.0128413 0.0271127 0.0435201 
0.0272085 0.0126372 0.0410563 0.0251298 0.0163858 0.0385893 0.0251119 0.0164132 0.0435417 
-0.0222976 -0.0200703 0.0360044 -0.0223018 -0.0200657 0.0310472 -0.0192072 -0.0230453 0.0335192 
0.0159713 0.0253952 0.0410817 0.019435 0.0228534 0.0435545 0.0194517 0.0228393 0.0385977 
0.0255794 -0.0156746 0.0682574 0.0231296 -0.0191056 0.0706762 0.0231627 -0.0190654 0.0657589 
0.0297315 -0.00400457 0.0710973 0.0288918 -0.00807861 0.0684217 0.0297211 -0.00408097 0.0660973 
-0.0128847 0.0270922 0.0534316 -0.0128532 0.0271071 0.0484793 -0.0165939 0.0249929 0.050946 
-0.022966 0.0193019 0.04598 -0.0229573 0.0193123 0.0509337 -0.0199789 0.0223795 0.0484625 
0.0251119 0.0164132 0.0435417 0.0225134 0.0198279 0.0410726 0.0224993 0.0198439 0.0460269 
0.0224993 0.0198439 0.0460269 0.0225134 0.0198279 0.0410726 0.019435 0.0228534 0.0435545 
0.0231296 -0.0191056 0.0706762 0.0202787 -0.0221082 0.0727342 0.0202447 -0.0221394 0.0681383 
-0.0222976 -0.0200703 0.0360044 -0.0249357 -0.0166796 0.0335315 -0.0223018 -0.0200657 0.0310472 
-0.0299953 -0.000532277 0.0583456 -0.0297625 0.00376772 0.0558731 -0.0299953 -0.000529141 0.0533836 
0.00914992 -0.0285706 0.0558085 0.00497511 -0.0295846 0.05829 0.00496861 -0.0295857 0.0533308 
-0.00492678 0.0295927 0.079341 -0.00878928 0.0286836 0.0755334 -0.00975576 0.0283694 0.0794457 
0.0231557 -0.0190739 0.0558238 0.0202263 -0.0221562 0.0533218 0.0231554 -0.0190743 0.0508333 
-0.0270639 -0.012944 0.0310597 -0.0249357 -0.0166796 0.0335315 -0.0270589 -0.0129544 0.0360177 
-0.0290536 0.00747574 0.0732487 -0.0278518 0.0111479 0.0756681 -0.0271371 0.0127897 0.0714271 
0.0297315 -0.00400457 0.0710973 0.0289065 -0.00802601 0.0735914 0.0288918 -0.00807861 0.0684217 
-0.0299953 -0.000529141 0.0533836 -0.0296122 -0.00480829 0.0558592 -0.0299953 -0.000532277 0.0583456 
0.000676864 -0.0299924 0.0458866 0.000683285 -0.0299922 0.0508509 -0.00361468 -0.0297814 0.0483731 
0.0231296 -0.0191056 0.0706762 0.0202447 -0.0221394 0.0681383 0.0231627 -0.0190654 0.0657589 
-0.0297941 0.00350863 0.0756704 -0.0298975 0.00247738 0.0799955 -0.0289239 0.00796289 0.0794249 
0.0297211 -0.00408097 0.0660973 0.0288935 -0.00807246 0.0633022 0.0297208 -0.00408319 0.0610898 
0.00493967 -0.0295905 0.0733704 0.000490621 -0.029996 0.07562 0.000690357 -0.0299921 0.0706864 
0.0224993 0.0198439 0.0460269 0.019435 0.0228534 0.0435545 0.019423 0.0228637 0.0485118 
-0.029619 -0.00476614 0.0310743 -0.029617 -0.00477853 0.0360293 -0.0299958 -0.000498983 0.0335569 
0.0193237 0.0229476 0.0634238 0.0158025 0.0255006 0.0658415 0.0192161 0.0230378 0.0684235 
-0.0286333 -0.00895171 0.0335444 -0.029617 -0.00477853 0.0360293 -0.029619 -0.00476614 0.0310743 
-0.0289154 0.00799358 0.0335679 -0.0297591 0.00379443 0.0310817 -0.0297607 0.00378148 0.0360399 
0.019435 0.0228534 0.0435545 0.0159583 0.0254034 0.0460412 0.019423 0.0228637 0.0485118 
0.0131502 -0.0269643 0.0582837 0.016887 -0.0247957 0.0607663 0.0131694 -0.0269549 0.0632437 
0.0121597 0.0274252 0.0485152 0.0159583 0.0254034 0.0460412 0.0121708 0.0274203 0.0435559 
-0.00902008 0.0286119 0.0608938 -0.00892097 0.0286429 0.0559271 -0.0129293 0.0270709 0.0583782 
0.0168646 -0.024811 0.0558068 0.016887 -0.0247957 0.0607663 0.0131502 -0.0269643 0.0582837 
0.00799583 0.0289148 0.0658532 0.00795195 0.0289269 0.0707407 0.0119491 0.0275176 0.0682476 
-0.0165939 0.0249929 0.050946 -0.0128532 0.0271071 0.0484793 -0.0165818 0.0250009 0.0459919 
0.0256067 -0.01563 0.0632643 0.0231627 -0.0190654 0.0657589 0.023169 -0.0190578 0.0607971 
0.0297208 -0.00408319 0.0610898 0.0288848 -0.0081035 0.0583007 0.0297181 -0.0041029 0.0561378 
0.00496282 -0.0295867 0.0483656 0.000683285 -0.0299922 0.0508509 0.000676864 -0.0299924 0.0458866 
-0.0254809 0.0158343 0.0335775 -0.0274774 0.0120413 0.0310964 -0.0274811 0.0120328 0.0360531 
0.019423 0.0228637 0.0485118 0.0159583 0.0254034 0.0460412 0.0159489 0.0254093 0.0509967 
0.00496394 -0.0295865 0.0682157 0.00493967 -0.0295905 0.0733704 0.000690357 -0.0299921 0.0706864 
-0.0157193 -0.025552 0.0706362 -0.0191692 -0.0230769 0.0731835 -0.0191819 -0.0230663 0.0682235 
-0.0035739 -0.0297864 0.0727919 -0.00760666 -0.0290196 0.0754184 -0.00781413 -0.0289644 0.070594 
0.00496861 -0.0295857 0.0533308 0.000683285 -0.0299922 0.0508509 0.00496282 -0.0295867 0.0483656 
-0.0199789 0.0223795 0.0484625 -0.0199754 0.0223826 0.0534153 -0.0165939 0.0249929 0.050946 
0.028733 0.0086264 0.0535326 0.0287337 0.00862422 0.0485241 0.0271966 0.0126628 0.0510115 
0.0224993 0.0198439 0.0460269 0.019423 0.0228637 0.0485118 0.02249 0.0198545 0.0509959 
0.0121708 0.0274203 0.0435559 0.0159583 0.0254034 0.0460412 0.0159713 0.0253952 0.0410817 
0.0192161 0.0230378 0.0684235 0.0190501 0.0231753 0.0735052 0.0222925 0.0200759 0.0710442 
-0.0229574 0.0193121 0.0311036 -0.0254809 0.0158343 0.0335775 -0.022962 0.0193067 0.0360642 
0.0255794 -0.0156746 0.0682574 0.0255067 -0.0157926 0.0733532 0.0231296 -0.0191056 0.0706762 
-0.0297625 0.00376752 0.0608326 -0.0297625 0.00376772 0.0558731 -0.0299953 -0.000532277 0.0583456 
0.0271966 0.0126628 0.0510115 0.0287337 0.00862422 0.0485241 0.0272021 0.0126509 0.046026 
0.0297211 -0.00408097 0.0660973 0.0297208 -0.00408319 0.0610898 0.03 -7.34788e-18 0.0637237 
0.0131407 -0.0269689 0.0533221 0.0131502 -0.0269643 0.0582837 0.00914992 -0.0285706 0.0558085 
-0.0274811 0.0120328 0.0360531 -0.0274774 0.0120413 0.0310964 -0.0289154 0.00799358 0.0335679 
0.03 -7.34788e-18 0.0587237 0.0296813 0.0043611 0.0611891 0.03 -7.34788e-18 0.0637237 
-0.0297607 0.00378148 0.0360399 -0.0297591 0.00379443 0.0310817 -0.0299958 -0.000498983 0.0335569 
0.0297208 -0.00408319 0.0610898 0.0288935 -0.00807246 0.0633022 0.0288848 -0.0081035 0.0583007 
-0.0199674 0.0223898 0.0335894 -0.0229574 0.0193121 0.0311036 -0.022962 0.0193067 0.0360642 
-0.0156879 -0.0255713 0.0657252 -0.0157193 -0.025552 0.0706362 -0.0191819 -0.0230663 0.0682235 
0.0256275 -0.0155959 0.0583046 0.023169 -0.0190578 0.0607971 0.0231557 -0.0190739 0.0558238 
0.0159713 0.0253952 0.0410817 0.0159583 0.0254034 0.0460412 0.019435 0.0228534 0.0435545 
-0.0297625 0.00376752 0.0608326 -0.0289101 0.0080129 0.0633262 -0.02891 0.00801312 0.0583693 
0.00497803 -0.0295841 0.0632474 0.00916363 -0.0285662 0.0607688 0.00916909 -0.0285644 0.0657282 
0.0159489 0.0254093 0.0509967 0.0159583 0.0254034 0.0460412 0.0121597 0.0274252 0.0485152 
-0.0165617 0.0250142 0.0311152 -0.0199674 0.0223898 0.0335894 -0.0165704 0.0250085 0.0360754 
-0.0286333 -0.00895171 0.0335444 -0.0270639 -0.012944 0.0310597 -0.0270589 -0.0129544 0.0360177 
0.00497511 -0.0295846 0.05829 0.00916363 -0.0285662 0.0607688 0.00497803 -0.0295841 0.0632474 
0.0297211 -0.00408097 0.0660973 0.0288918 -0.00807861 0.0684217 0.0288935 -0.00807246 0.0633022 
0.03 -7.34788e-18 0.0687237 0.0297211 -0.00408097 0.0660973 0.03 -7.34788e-18 0.0637237 
0.00916363 -0.0285662 0.0607688 0.0131502 -0.0269643 0.0582837 0.0131694 -0.0269549 0.0632437 
0.03 -7.34788e-18 0.0487237 0.0297246 -0.00405578 0.0459327 0.03 -7.34788e-18 0.0437237 
-0.00361194 -0.0297818 0.0681401 -0.0035739 -0.0297864 0.0727919 -0.00781413 -0.0289644 0.070594 
0.0193237 0.0229476 0.0634238 0.0192161 0.0230378 0.0684235 0.0223889 0.0199684 0.0659566 
0.000688203 -0.0299921 0.0558109 0.00497511 -0.0295846 0.05829 0.000687804 -0.0299921 0.0607677 
0.0250683 0.0164797 0.0634779 0.0271824 0.0126932 0.0659357 0.0271813 0.0126955 0.0609882 
0.000687804 -0.0299921 0.0607677 0.00497511 -0.0295846 0.05829 0.00497803 -0.0295841 0.0632474 
0.0296753 0.00440175 0.0461789 0.029667 0.00445746 0.0511121 0.03 -7.34788e-18 0.0487237 
0.0169668 -0.0247412 0.0706842 0.0171917 -0.0245855 0.075916 0.0131642 -0.0269575 0.0731639 
-0.0199789 0.0223795 0.0484625 -0.0229573 0.0193123 0.0509337 -0.0199754 0.0223826 0.0534153 
-0.0128226 0.0271216 0.0336008 -0.0165617 0.0250142 0.0311152 -0.0165704 0.0250085 0.0360754 
-0.0297625 0.00376752 0.0608326 -0.02891 0.00801312 0.0583693 -0.0297625 0.00376772 0.0558731 
0.0131642 -0.0269575 0.0731639 0.00909105 -0.0285894 0.0756023 0.00914953 -0.0285707 0.0706822 
0.0131694 -0.0269549 0.0632437 0.016887 -0.0247957 0.0607663 0.0169091 -0.0247807 0.0657154 
0.0201675 -0.0222097 0.0284603 0.016826 -0.0248372 0.0309563 0.0168154 -0.0248444 0.025987 
0.0272021 0.0126509 0.046026 0.0287337 0.00862422 0.0485241 0.0287363 0.00861529 0.043544 
-0.000357296 0.0299979 0.0360973 -0.00464491 0.0296382 0.038571 -0.000368438 0.0299977 0.0410565 
0.00914953 -0.0285707 0.0706822 0.00493967 -0.0295905 0.0733704 0.00496394 -0.0295865 0.0682157 
0.00914643 -0.0285717 0.0508443 0.00496861 -0.0295857 0.0533308 0.00496282 -0.0295867 0.0483656 
-0.000357296 0.0299979 0.0360973 -0.000349677 0.029998 0.0311429 -0.00462888 0.0296407 0.0336163 
0.0250431 0.0165179 0.0684892 0.0271824 0.0126932 0.0659357 0.0250683 0.0164797 0.0634779 
0.0231627 -0.0190654 0.0657589 0.0202509 -0.0221337 0.0632723 0.023169 -0.0190578 0.0607971 
-0.00882299 0.0286732 0.0360871 -0.00880102 0.02868 0.0311286 -0.0128226 0.0271216 0.0336008 
-0.00465254 0.029637 0.0435312 -0.00464491 0.0296382 0.038571 -0.00883376 0.0286699 0.0410459 
0.00496861 -0.0295857 0.0533308 0.000688203 -0.0299921 0.0558109 0.000683285 -0.0299922 0.0508509 
0.00913312 -0.028576 0.0409069 0.0131178 -0.0269801 0.0384123 0.0131278 -0.0269752 0.0433813 
0.00914992 -0.0285706 0.0558085 0.00496861 -0.0295857 0.0533308 0.00914643 -0.0285717 0.0508443 
0.0201813 -0.0221972 0.0433779 0.0168315 -0.0248334 0.0408832 0.0201701 -0.0222073 0.0383867 
0.0256067 -0.01563 0.0632643 0.0255794 -0.0156746 0.0682574 0.0231627 -0.0190654 0.0657589 
0.03 -7.34788e-18 0.0637237 0.0296673 0.00445554 0.0662326 0.03 -7.34788e-18 0.0687237 
0.00392991 0.0297415 0.0336243 -0.000349677 0.029998 0.0311429 -0.000357296 0.0299979 0.0360973 
0.03 -7.34788e-18 0.0587237 0.0297181 -0.0041029 0.0561378 0.03 -7.34788e-18 0.0537237 
-0.000368438 0.0299977 0.0410565 -0.00464491 0.0296382 0.038571 -0.00465254 0.029637 0.0435312 
-0.0165939 0.0249929 0.050946 -0.0199754 0.0223826 0.0534153 -0.0166091 0.0249828 0.0558985 
-0.0156926 -0.0255684 0.0607833 -0.0156879 -0.0255713 0.0657252 -0.0191822 -0.0230661 0.0632674 
-0.0129293 0.0270709 0.0583782 -0.00892097 0.0286429 0.0559271 -0.0128847 0.0270922 0.0534316 
0.00909105 -0.0285894 0.0756023 0.00493967 -0.0295905 0.0733704 0.00914953 -0.0285707 0.0706822 
0.0202509 -0.0221337 0.0632723 0.0202331 -0.02215 0.0583143 0.023169 -0.0190578 0.0607971 
0.0131407 -0.0269689 0.0533221 0.00914992 -0.0285706 0.0558085 0.00914643 -0.0285717 0.0508443 
0.00813823 0.0288751 0.0361079 0.00814182 0.028874 0.0311504 0.00392991 0.0297415 0.0336243 
0.03 -7.34788e-18 0.0737237 0.0297315 -0.00400457 0.0710973 0.03 -7.34788e-18 0.0687237 
0.0121858 0.0274136 0.0336306 0.00814182 0.028874 0.0311504 0.00813823 0.0288751 0.0361079 
0.0271795 0.0126993 0.0709055 0.0271824 0.0126932 0.0659357 0.0250431 0.0165179 0.0684892 
0.00392504 0.0297421 0.0385816 -0.000357296 0.0299979 0.0360973 -0.000368438 0.0299977 0.0410565 
0.015987 0.0253853 0.0311479 0.0121858 0.0274136 0.0336306 0.015983 0.0253879 0.0361159 
0.0131642 -0.0269575 0.0731639 0.0126602 -0.0271978 0.0780262 0.00909105 -0.0285894 0.0756023 
0.0272251 0.0126013 0.0361099 0.0287571 0.00854569 0.0336361 0.0272358 0.0125782 0.0311655 
0.03 -7.34788e-18 0.0437237 0.0296753 0.00440175 0.0461789 0.03 -7.34788e-18 0.0487237 
-0.0252092 0.0162634 0.0681355 -0.0273778 0.0122661 0.0659382 -0.0271371 0.0127897 0.0714271 
0.0255119 -0.0157843 0.0284423 0.0230734 -0.0191733 0.0309384 0.023091 -0.0191522 0.0259674 
-0.00360589 -0.0297825 0.0582903 0.000688203 -0.0299921 0.0558109 0.000687804 -0.0299921 0.0607677 
0.0297181 -0.0041029 0.0561378 0.0288848 -0.0081035 0.0583007 0.0288929 -0.00807454 0.0533185 
0.0194616 0.0228308 0.0336355 0.0225299 0.0198092 0.036118 0.0225381 0.0197998 0.0311567 
-0.0156949 -0.025567 0.0558274 -0.019186 -0.0230629 0.0533534 -0.0156996 -0.0255641 0.0508681 
0.0225381 0.0197998 0.0311567 0.0225299 0.0198092 0.036118 0.0251434 0.0163649 0.0336404 
-0.0128413 0.0271127 0.0435201 -0.0128532 0.0271071 0.0484793 -0.00884205 0.0286674 0.046006 
0.0251434 0.0163649 0.0336404 0.0272251 0.0126013 0.0361099 0.0272358 0.0125782 0.0311655 
0.000490621 -0.029996 0.07562 -0.0035739 -0.0297864 0.0727919 0.000690357 -0.0299921 0.0706864 
0.03 -7.34788e-18 0.0437237 0.0297263 -0.00404294 0.0411233 0.03 -7.34788e-18 0.0387237 
0.00813823 0.0288751 0.0361079 0.00392504 0.0297421 0.0385816 0.00812989 0.0288774 0.0410684 
-0.0298387 -0.00310698 0.0794715 -0.0299995 -0.000164879 0.0767466 -0.0295761 -0.00502534 0.0757324 
-0.0183217 -0.0237553 0.079455 -0.0198556 -0.022489 0.0764687 -0.0161629 -0.0252737 0.0754553 
0.00813823 0.0288751 0.0361079 0.00812989 0.0288774 0.0410684 0.0121797 0.0274163 0.0385932 
0.015987 0.0253853 0.0311479 0.015983 0.0253879 0.0361159 0.0194616 0.0228308 0.0336355 
0.0192161 0.0230378 0.0684235 0.0222925 0.0200759 0.0710442 0.0223889 0.0199684 0.0659566 
-0.0222784 -0.0200916 0.0657284 -0.0222811 -0.0200886 0.070583 -0.0249154 -0.0167099 0.0682181 
-0.0191822 -0.0230661 0.0632674 -0.0156879 -0.0255713 0.0657252 -0.0191819 -0.0230663 0.0682235 
0.0274802 -0.0120349 0.0708763 0.0274476 -0.012109 0.0759949 0.0255067 -0.0157926 0.0733532 
0.0287571 0.00854569 0.0336361 0.0296729 0.00441821 0.03614 0.0296875 0.00431884 0.0312237 
0.0256063 -0.0156306 0.0533089 0.0231557 -0.0190739 0.0558238 0.0231554 -0.0190743 0.0508333 
0.00392504 0.0297421 0.0385816 0.00391625 0.0297433 0.0435441 0.00812989 0.0288774 0.0410684 
0.00916909 -0.0285644 0.0657282 0.00916363 -0.0285662 0.0607688 0.0131694 -0.0269549 0.0632437 
0.00812153 0.0288798 0.0460286 0.0121597 0.0274252 0.0485152 0.0121708 0.0274203 0.0435559 
0.00392504 0.0297421 0.0385816 -0.000368438 0.0299977 0.0410565 0.00391625 0.0297433 0.0435441 
-0.0222811 -0.0200886 0.070583 -0.0249343 -0.0166817 0.0732026 -0.0249154 -0.0167099 0.0682181 
-0.00882299 0.0286732 0.0360871 -0.00462888 0.0296407 0.0336163 -0.00880102 0.02868 0.0311286 
-0.0273396 0.0123509 0.0794474 -0.0278518 0.0111479 0.0756681 -0.0289239 0.00796289 0.0794249 
0.028725 0.00865285 0.0585265 0.0296735 0.00441397 0.0560009 0.028733 0.0086264 0.0535326 
0.00811101 0.0288827 0.0509893 0.0121597 0.0274252 0.0485152 0.00812153 0.0288798 0.0460286 
0.0287363 0.00861529 0.043544 0.0296775 0.00438705 0.0410558 0.0287431 0.00859267 0.0385941 
0.0168416 -0.0248266 0.0458615 0.0131278 -0.0269752 0.0433813 0.0168315 -0.0248334 0.0408832 
0.0296875 0.00431884 0.0312237 0.0296729 0.00441821 0.03614 0.03 -7.34788e-18 0.0337237 
-0.0296153 -0.00478916 0.0409857 -0.029617 -0.00477853 0.0360293 -0.0286299 -0.00896271 0.0385013 
0.03 -7.34788e-18 0.0337237 0.0297233 -0.00406542 0.0361855 0.0297128 -0.00414138 0.0312188 
0.03 -7.34788e-18 0.0637237 0.0297208 -0.00408319 0.0610898 0.03 -7.34788e-18 0.0587237 
0.0297128 -0.00414138 0.0312188 0.0297233 -0.00406542 0.0361855 0.0288525 -0.00821797 0.0336559 
-0.0118838 -0.0275459 0.0681613 -0.0156879 -0.0255713 0.0657252 -0.0118785 -0.0275482 0.0632521 
0.0121479 0.0274304 0.053474 0.00809815 0.0288863 0.0559506 0.012136 0.0274357 0.0584357 
-0.0271371 0.0127897 0.0714271 -0.0251556 0.0163461 0.0721049 -0.0252092 0.0162634 0.0681355 
0.0168089 -0.0248488 0.035916 0.0201661 -0.022211 0.0334205 0.0201701 -0.0222073 0.0383867 
-0.0118785 -0.0275482 0.0632521 -0.0156879 -0.0255713 0.0657252 -0.0156926 -0.0255684 0.0607833 
-0.00362106 -0.0297807 0.0434093 -0.00362572 -0.0297801 0.0384441 0.000670816 -0.0299925 0.04092 
-0.000368438 0.0299977 0.0410565 -0.000375922 0.0299976 0.0460179 0.00391625 0.0297433 0.0435441 
-0.00360797 -0.0297823 0.0533334 0.000688203 -0.0299921 0.0558109 -0.00360589 -0.0297825 0.0582903 
-0.00782288 -0.0289621 0.0657117 -0.0118838 -0.0275459 0.0681613 -0.0118785 -0.0275482 0.0632521 
0.000690357 -0.0299921 0.0706864 -0.0035739 -0.0297864 0.0727919 -0.00361194 -0.0297818 0.0681401 
0.0201701 -0.0222073 0.0383867 0.0201661 -0.022211 0.0334205 0.0230725 -0.0191745 0.035904 
-0.00361194 -0.0297818 0.0681401 -0.00781413 -0.0289644 0.070594 -0.00782288 -0.0289621 0.0657117 
0.00795195 0.0289269 0.0707407 0.00753375 0.0290386 0.0757509 0.0118367 0.0275662 0.072923 
-0.000368438 0.0299977 0.0410565 -0.00465254 0.029637 0.0435312 -0.000375922 0.0299976 0.0460179 
0.0168646 -0.024811 0.0558068 0.0131502 -0.0269643 0.0582837 0.0131407 -0.0269689 0.0533221 
0.0131146 -0.0269816 0.0334486 0.0131178 -0.0269801 0.0384123 0.00912428 -0.0285788 0.0359395 
0.023091 -0.0191522 0.0259674 0.0230734 -0.0191733 0.0309384 0.0201675 -0.0222097 0.0284603 
4.08595e-05 0.03 0.0794623 -0.00492678 0.0295927 0.079341 -0.00247738 0.0298975 0.0837237 
-0.00465254 0.029637 0.0435312 -0.00465956 0.0296359 0.0484917 -0.000375922 0.0299976 0.0460179 
-0.00781413 -0.0289644 0.070594 -0.0118838 -0.0275459 0.0681613 -0.00782288 -0.0289621 0.0657117 
-0.0132343 0.0269231 0.0681347 -0.0135939 0.0267433 0.0718973 -0.0103706 0.0281505 0.071485 
-0.0224533 0.019896 0.0710324 -0.0196574 0.0226625 0.0716709 -0.0197996 0.0225383 0.0678864 
0.00811101 0.0288827 0.0509893 0.00390766 0.0297444 0.0485047 0.00389662 0.0297459 0.0534653 
0.0201813 -0.0221972 0.0433779 0.0201701 -0.0222073 0.0383867 0.0230922 -0.0191507 0.0409159 
0.0131146 -0.0269816 0.0334486 0.0168089 -0.0248488 0.035916 0.0131178 -0.0269801 0.0384123 
-0.00781413 -0.0289644 0.070594 -0.011967 -0.0275098 0.0729297 -0.0118838 -0.0275459 0.0681613 
-0.0191819 -0.0230663 0.0682235 -0.0222811 -0.0200886 0.070583 -0.0222784 -0.0200916 0.0657284 
-0.0191692 -0.0230769 0.0731835 -0.0222811 -0.0200886 0.070583 -0.0191819 -0.0230663 0.0682235 
0.0256275 -0.0155959 0.0583046 0.0256067 -0.01563 0.0632643 0.023169 -0.0190578 0.0607971 
-0.0274414 0.0121231 0.060881 -0.0273778 0.0122661 0.0659382 -0.0253617 0.0160245 0.0633268 
-0.0156926 -0.0255684 0.0607833 -0.0191827 -0.0230656 0.0583124 -0.0156949 -0.025567 0.0558274 
-0.0165704 0.0250085 0.0360754 -0.019973 0.0223848 0.0385482 -0.016577 0.0250041 0.0410339 
-0.00465956 0.0296359 0.0484917 -0.00886422 0.0286605 0.0509671 -0.00467171 0.029634 0.0534524 
-0.0118812 -0.027547 0.058301 -0.0156926 -0.0255684 0.0607833 -0.0156949 -0.025567 0.0558274 
0.00914992 -0.0285706 0.0558085 0.00916363 -0.0285662 0.0607688 0.00497511 -0.0295846 0.05829 
0.0254958 -0.0158102 0.0334212 0.0274246 -0.012161 0.0358907 0.0255076 -0.0157913 0.0384451 
0.03 -7.34788e-18 0.0787237 0.0297817 0.00361278 0.08009 0.03 -7.34788e-18 0.0837237 
0.00380237 0.0297581 0.0633956 -0.000569289 0.0299946 0.0658865 0.00376878 0.0297623 0.0683282 
0.000666027 -0.0299926 0.0359545 0.00494349 -0.0295899 0.0334639 0.00494989 -0.0295888 0.0384302 
-0.0118843 -0.0275457 0.0533426 -0.0156949 -0.025567 0.0558274 -0.0156996 -0.0255641 0.0508681 
-0.0297607 0.00378148 0.0360399 -0.0299957 -0.000509448 0.0385132 -0.029762 0.00377141 0.0409976 
-0.0299953 -0.000529141 0.0533836 -0.0297625 0.00376772 0.0558731 -0.0297633 0.00376116 0.0509111 
-0.0118838 -0.0275459 0.0681613 -0.0157193 -0.025552 0.0706362 -0.0156879 -0.0255713 0.0657252 
-0.027056 -0.0129604 0.0409736 -0.0249314 -0.0166861 0.038489 -0.0249278 -0.0166914 0.0434454 
-0.00465254 0.029637 0.0435312 -0.00884205 0.0286674 0.046006 -0.00465956 0.0296359 0.0484917 
-0.0156926 -0.0255684 0.0607833 -0.0191822 -0.0230661 0.0632674 -0.0191827 -0.0230656 0.0583124 
-0.0050392 0.0295737 0.068399 -0.000569289 0.0299946 0.0658865 -0.00484436 0.0296063 0.0634122 
0.0202026 -0.0221778 0.0483515 0.0202263 -0.0221562 0.0533218 0.0168413 -0.0248268 0.0508361 
-0.0166761 0.0249381 0.0705159 -0.0132343 0.0269231 0.0681347 -0.0166707 0.0249417 0.0657057 
0.0251048 0.016424 0.0485116 0.0224993 0.0198439 0.0460269 0.02249 0.0198545 0.0509959 
0.02249 0.0198545 0.0509959 0.0194115 0.0228734 0.0534805 0.0224771 0.019869 0.0559721 
-0.00465956 0.0296359 0.0484917 -0.00467171 0.029634 0.0534524 -0.000384935 0.0299975 0.0509786 
0.0251048 0.016424 0.0485116 0.0271966 0.0126628 0.0510115 0.0272021 0.0126509 0.046026 
0.0168416 -0.0248266 0.0458615 0.0168315 -0.0248334 0.0408832 0.0201813 -0.0221972 0.0433779 
0.00380237 0.0297581 0.0633956 0.00376878 0.0297623 0.0683282 0.00799583 0.0289148 0.0658532 
0.0159489 0.0254093 0.0509967 0.0121597 0.0274252 0.0485152 0.0121479 0.0274304 0.053474 
-0.0118906 -0.027543 0.048383 -0.0156996 -0.0255641 0.0508681 -0.0157056 -0.0255604 0.0459081 
-0.00484436 0.0296063 0.0634122 -0.000569289 0.0299946 0.0658865 -0.000473653 0.0299963 0.0609101 
0.012136 0.0274357 0.0584357 0.00809815 0.0288863 0.0559506 0.00807342 0.0288932 0.0609148 
-0.00467171 0.029634 0.0534524 -0.00476148 0.0296197 0.0584253 -0.000397187 0.0299974 0.0559385 
0.000683285 -0.0299922 0.0508509 0.000688203 -0.0299921 0.0558109 -0.00360797 -0.0297823 0.0533334 
0.00911884 -0.0285805 0.0260025 0.0131129 -0.0269825 0.0284834 0.00912065 -0.02858 0.0309737 
-0.0130304 0.0270224 0.0754793 -0.00878928 0.0286836 0.0755334 -0.0103706 0.0281505 0.071485 
-0.00902008 0.0286119 0.0608938 -0.00924118 0.0285412 0.065983 -0.00484436 0.0296063 0.0634122 
-0.00476148 0.0296197 0.0584253 -0.00484436 0.0296063 0.0634122 -0.000473653 0.0299963 0.0609101 
-0.0166893 0.0249292 0.0753995 -0.0196574 0.0226625 0.0716709 -0.0203773 0.0220174 0.075429 
-0.00924118 0.0285412 0.065983 -0.0103706 0.0281505 0.071485 -0.0050392 0.0295737 0.068399 
0.00391625 0.0297433 0.0435441 0.00812153 0.0288798 0.0460286 0.00812989 0.0288774 0.0410684 
0.0271931 0.0126703 0.0559907 0.0271966 0.0126628 0.0510115 0.0250985 0.0164336 0.0534907 
-0.00924118 0.0285412 0.065983 -0.0132343 0.0269231 0.0681347 -0.0103706 0.0281505 0.071485 
-0.0298387 -0.00310698 0.0794715 -0.029082 -0.00736456 0.0794339 -0.0295908 -0.00493784 0.0837237 
-0.0289178 0.00798499 0.0385254 -0.0297607 0.00378148 0.0360399 -0.029762 0.00377141 0.0409976 
-0.00784773 -0.0289554 0.03597 -0.00363126 -0.0297794 0.0334795 -0.00362572 -0.0297801 0.0384441 
0.029721 -0.00408211 0.0511998 0.0288929 -0.00807454 0.0533185 0.0288978 -0.00805702 0.0483828 
-0.0118812 -0.027547 0.058301 -0.0118785 -0.0275482 0.0632521 -0.0156926 -0.0255684 0.0607833 
0.0193961 0.0228865 0.0584513 0.0194115 0.0228734 0.0534805 0.0159356 0.0254176 0.0559603 
-0.00362572 -0.0297801 0.0384441 -0.00363126 -0.0297794 0.0334795 0.000666027 -0.0299926 0.0359545 
-0.011967 -0.0275098 0.0729297 -0.0157193 -0.025552 0.0706362 -0.0118838 -0.0275459 0.0681613 
-0.016577 0.0250041 0.0410339 -0.0199768 0.0223814 0.0435065 -0.0165818 0.0250009 0.0459919 
-0.0270407 -0.0129923 0.0657388 -0.0270191 -0.0130372 0.0705902 -0.0285903 -0.0090881 0.0681544 
-0.0191822 -0.0230661 0.0632674 -0.0222791 -0.0200908 0.060794 -0.0191827 -0.0230656 0.0583124 
-0.0103706 0.0281505 0.071485 -0.00494722 0.0295893 0.0732561 -0.0050392 0.0295737 0.068399 
-0.00465254 0.029637 0.0435312 -0.00883376 0.0286699 0.0410459 -0.00884205 0.0286674 0.046006 
-0.00883376 0.0286699 0.0410459 -0.0128413 0.0271127 0.0435201 -0.00884205 0.0286674 0.046006 
0.00494349 -0.0295899 0.0334639 0.00912428 -0.0285788 0.0359395 0.00494989 -0.0295888 0.0384302 
-0.00924118 0.0285412 0.065983 -0.0050392 0.0295737 0.068399 -0.00484436 0.0296063 0.0634122 
-0.00476148 0.0296197 0.0584253 -0.00892097 0.0286429 0.0559271 -0.00902008 0.0286119 0.0608938 
0.00812989 0.0288774 0.0410684 0.0121708 0.0274203 0.0435559 0.0121797 0.0274163 0.0385932 
-0.0263842 -0.0142784 0.0837237 -0.0274732 -0.0120509 0.0794339 -0.0249996 -0.0165837 0.0792552 
-0.00476148 0.0296197 0.0584253 -0.000473653 0.0299963 0.0609101 -0.000397187 0.0299974 0.0559385 
-0.0118843 -0.0275457 0.0533426 -0.0118812 -0.027547 0.058301 -0.0156949 -0.025567 0.0558274 
-0.000527162 0.0299954 0.0707463 0.00386038 0.0297506 0.0733028 0.00376878 0.0297623 0.0683282 
-0.00902008 0.0286119 0.0608938 -0.0130627 0.0270068 0.0632941 -0.00924118 0.0285412 0.065983 
-0.00476148 0.0296197 0.0584253 -0.00902008 0.0286119 0.0608938 -0.00484436 0.0296063 0.0634122 
-0.0270191 -0.0130372 0.0705902 -0.0285673 -0.00916029 0.0727966 -0.0285903 -0.0090881 0.0681544 
0.00812153 0.0288798 0.0460286 0.00390766 0.0297444 0.0485047 0.00811101 0.0288827 0.0509893 
-0.0249278 -0.0166914 0.0434454 -0.0249314 -0.0166861 0.038489 -0.0222928 -0.0200756 0.0409611 
-0.0199768 0.0223814 0.0435065 -0.0199789 0.0223795 0.0484625 -0.0165818 0.0250009 0.0459919 
-0.0128338 0.0271163 0.0385607 -0.0165704 0.0250085 0.0360754 -0.016577 0.0250041 0.0410339 
0.0255067 -0.0157926 0.0733532 0.0229611 -0.0193077 0.0753289 0.0231296 -0.0191056 0.0706762 
0.0121479 0.0274304 0.053474 0.0121597 0.0274252 0.0485152 0.00811101 0.0288827 0.0509893 
-0.0119034 -0.0275374 0.0384615 -0.0119063 -0.0275362 0.0334998 -0.00784773 -0.0289554 0.03597 
0.00376878 0.0297623 0.0683282 0.00795195 0.0289269 0.0707407 0.00799583 0.0289148 0.0658532 
0.0202447 -0.0221394 0.0681383 0.0202509 -0.0221337 0.0632723 0.0231627 -0.0190654 0.0657589 
-0.0299955 -0.000517653 0.0434698 -0.0299957 -0.000509448 0.0385132 -0.0296153 -0.00478916 0.0409857 
-0.022962 0.0193067 0.0360642 -0.0254842 0.015829 0.0385369 -0.0229654 0.0193025 0.0410223 
-0.029762 0.00377141 0.0409976 -0.0299957 -0.000509448 0.0385132 -0.0299955 -0.000517653 0.0434698 
-0.00883376 0.0286699 0.0410459 -0.0128338 0.0271163 0.0385607 -0.0128413 0.0271127 0.0435201 
-0.0299954 -0.000524057 0.0484259 -0.0296132 -0.00480194 0.0508993 -0.0299953 -0.000529141 0.0533836 
-0.0289198 0.00797775 0.0434826 -0.0289178 0.00798499 0.0385254 -0.029762 0.00377141 0.0409976 
-0.00361468 -0.0297814 0.0483731 -0.00360797 -0.0297823 0.0533334 -0.00782986 -0.0289602 0.0508577 
0.028733 0.0086264 0.0535326 0.0271966 0.0126628 0.0510115 0.0271931 0.0126703 0.0559907 
-0.00467171 0.029634 0.0534524 -0.000397187 0.0299974 0.0559385 -0.000384935 0.0299975 0.0509786 
-0.0249343 -0.0166817 0.0732026 -0.0270191 -0.0130372 0.0705902 -0.0249154 -0.0167099 0.0682181 
-0.0191822 -0.0230661 0.0632674 -0.0222784 -0.0200916 0.0657284 -0.0222791 -0.0200908 0.060794 
0.000685382 -0.0299922 0.0657266 0.000690357 -0.0299921 0.0706864 -0.00361194 -0.0297818 0.0681401 
-0.00884205 0.0286674 0.046006 -0.00886422 0.0286605 0.0509671 -0.00465956 0.0296359 0.0484917 
0.000658684 -0.0299928 0.0309889 0.000648215 -0.029993 0.0260224 0.00493704 -0.029591 0.0284968 
0.0121479 0.0274304 0.053474 0.00811101 0.0288827 0.0509893 0.00809815 0.0288863 0.0559506 
-0.00465956 0.0296359 0.0484917 -0.000384935 0.0299975 0.0509786 -0.000375922 0.0299976 0.0460179 
-0.0222784 -0.0200916 0.0657284 -0.0249154 -0.0167099 0.0682181 -0.024915 -0.0167105 0.0632744 
-0.0222784 -0.0200916 0.0657284 -0.024915 -0.0167105 0.0632744 -0.0222791 -0.0200908 0.060794 
-0.0166374 0.0249639 0.0608087 -0.0166707 0.0249417 0.0657057 -0.0130627 0.0270068 0.0632941 
-0.0166707 0.0249417 0.0657057 -0.0132343 0.0269231 0.0681347 -0.0130627 0.0270068 0.0632941 
-0.0157166 -0.0255536 0.0359894 -0.0119063 -0.0275362 0.0334998 -0.0119034 -0.0275374 0.0384615 
0.0230725 -0.0191745 0.035904 0.0254958 -0.0158102 0.0334212 0.0255076 -0.0157913 0.0384451 
0.0224771 0.019869 0.0559721 0.0194115 0.0228734 0.0534805 0.0193961 0.0228865 0.0584513 
0.000658684 -0.0299928 0.0309889 -0.00363806 -0.0297786 0.0285149 0.000648215 -0.029993 0.0260224 
-0.0103706 0.0281505 0.071485 -0.0135939 0.0267433 0.0718973 -0.0130304 0.0270224 0.0754793 
-0.0199398 0.0224144 0.0632869 -0.0197996 0.0225383 0.0678864 -0.0166707 0.0249417 0.0657057 
-0.0249154 -0.0167099 0.0682181 -0.0270191 -0.0130372 0.0705902 -0.0270407 -0.0129923 0.0657388 
0.022453 0.0198963 0.0609508 0.0250683 0.0164797 0.0634779 0.0250886 0.0164488 0.0584673 
-0.0128847 0.0270922 0.0534316 -0.00892097 0.0286429 0.0559271 -0.00886422 0.0286605 0.0509671 
-0.0222976 -0.0200703 0.0360044 -0.0192072 -0.0230453 0.0335192 -0.019202 -0.0230496 0.0384765 
-0.0295988 -0.0048898 0.0657621 -0.0295842 -0.00497768 0.0706808 -0.0299925 -0.000672162 0.0681598 
-0.0199768 0.0223814 0.0435065 -0.022966 0.0193019 0.04598 -0.0199789 0.0223795 0.0484625 
-0.000473653 0.0299963 0.0609101 -0.000569289 0.0299946 0.0658865 0.00380237 0.0297581 0.0633956 
0.0131937 -0.026943 0.0682097 0.0131642 -0.0269575 0.0731639 0.00914953 -0.0285707 0.0706822 
-0.016577 0.0250041 0.0410339 -0.0165818 0.0250009 0.0459919 -0.0128413 0.0271127 0.0435201 
0.0131278 -0.0269752 0.0433813 0.0131178 -0.0269801 0.0384123 0.0168315 -0.0248334 0.0408832 
-0.0157193 -0.025552 0.0706362 -0.0161629 -0.0252737 0.0754553 -0.0191692 -0.0230769 0.0731835 
-0.0249357 -0.0166796 0.0335315 -0.0249314 -0.0166861 0.038489 -0.0270589 -0.0129544 0.0360177 
-0.0128338 0.0271163 0.0385607 -0.016577 0.0250041 0.0410339 -0.0128413 0.0271127 0.0435201 
0.00809815 0.0288863 0.0559506 0.00389662 0.0297459 0.0534653 0.00388685 0.0297471 0.0584267 
-0.0156996 -0.0255641 0.0508681 -0.019191 -0.0230587 0.0483921 -0.0157056 -0.0255604 0.0459081 
-0.00785235 -0.0289541 0.0310047 -0.0119095 -0.0275348 0.0285375 -0.00786309 -0.0289512 0.0260458 
0.0256275 -0.0155959 0.0583046 0.0275408 -0.0118956 0.0557923 0.0275478 -0.0118794 0.0607899 
-0.0222976 -0.0200703 0.0360044 -0.0249314 -0.0166861 0.038489 -0.0249357 -0.0166796 0.0335315 
-0.0166374 0.0249639 0.0608087 -0.0199619 0.0223947 0.0583496 -0.0199398 0.0224144 0.0632869 
0.0250985 0.0164336 0.0534907 0.0271966 0.0126628 0.0510115 0.0251048 0.016424 0.0485116 
-0.0191822 -0.0230661 0.0632674 -0.0191819 -0.0230663 0.0682235 -0.0222784 -0.0200916 0.0657284 
0.0275478 -0.0118794 0.0607899 0.0275099 -0.0119669 0.0657922 0.0256067 -0.01563 0.0632643 
0.0255076 -0.0157913 0.0384451 0.0255601 -0.015706 0.0434147 0.0230922 -0.0191507 0.0409159 
0.0120857 0.0274579 0.0633714 0.0158025 0.0255006 0.0658415 0.0158933 0.0254441 0.0609193 
-0.0197996 0.0225383 0.0678864 -0.0166761 0.0249381 0.0705159 -0.0166707 0.0249417 0.0657057 
-0.0296153 -0.00478916 0.0409857 -0.0299957 -0.000509448 0.0385132 -0.029617 -0.00477853 0.0360293 
0.0255794 -0.0156746 0.0682574 0.0275099 -0.0119669 0.0657922 0.0274802 -0.0120349 0.0708763 
-0.0166374 0.0249639 0.0608087 -0.0199398 0.0224144 0.0632869 -0.0166707 0.0249417 0.0657057 
-0.0274841 0.012026 0.0410105 -0.0289178 0.00798499 0.0385254 -0.0289198 0.00797775 0.0434826 
0.00914121 -0.0285734 0.0458756 0.00913312 -0.028576 0.0409069 0.0131278 -0.0269752 0.0433813 
0.0256063 -0.0156306 0.0533089 0.0256275 -0.0155959 0.0583046 0.0231557 -0.0190739 0.0558238 
0.0287257 0.00865064 0.0636679 0.0287447 0.00858747 0.0685738 0.0296673 0.00445554 0.0662326 
-0.0227521 0.0195535 0.0657827 -0.0224533 0.019896 0.0710324 -0.0197996 0.0225383 0.0678864 
-0.0199768 0.0223814 0.0435065 -0.0229654 0.0193025 0.0410223 -0.022966 0.0193019 0.04598 
-0.0249154 -0.0167099 0.0682181 -0.0270407 -0.0129923 0.0657388 -0.024915 -0.0167105 0.0632744 
-0.0229654 0.0193025 0.0410223 -0.0254865 0.0158252 0.0434957 -0.022966 0.0193019 0.04598 
-0.0254865 0.0158252 0.0434957 -0.0274857 0.0120224 0.0459688 -0.0254839 0.0158294 0.0484552 
0.0250431 0.0165179 0.0684892 0.0250683 0.0164797 0.0634779 0.0223889 0.0199684 0.0659566 
0.0250269 0.0165425 0.0735835 0.0272641 0.0125168 0.0759629 0.0271795 0.0126993 0.0709055 
0.0231554 -0.0190743 0.0508333 0.0202263 -0.0221562 0.0533218 0.0202026 -0.0221778 0.0483515 
-0.0286333 -0.00895171 0.0335444 -0.0270589 -0.0129544 0.0360177 -0.0286299 -0.00896271 0.0385013 
-0.0299954 -0.000524057 0.0484259 -0.0299953 -0.000529141 0.0533836 -0.0297633 0.00376116 0.0509111 
-0.019973 0.0223848 0.0385482 -0.022962 0.0193067 0.0360642 -0.0229654 0.0193025 0.0410223 
-0.0103706 0.0281505 0.071485 -0.00878928 0.0286836 0.0755334 -0.00494722 0.0295893 0.0732561 
-0.0286299 -0.00896271 0.0385013 -0.029617 -0.00477853 0.0360293 -0.0286333 -0.00895171 0.0335444 
-0.0254865 0.0158252 0.0434957 -0.0254839 0.0158294 0.0484552 -0.022966 0.0193019 0.04598 
0.0288533 -0.0082149 0.0286785 0.0274305 -0.0121477 0.0309453 0.027449 -0.012106 0.0259801 
-0.0129293 0.0270709 0.0583782 -0.0166374 0.0249639 0.0608087 -0.0130627 0.0270068 0.0632941 
0.0159356 0.0254176 0.0559603 0.0121479 0.0274304 0.053474 0.012136 0.0274357 0.0584357 
-0.0274811 0.0120328 0.0360531 -0.0289178 0.00798499 0.0385254 -0.0274841 0.012026 0.0410105 
-0.0199398 0.0224144 0.0632869 -0.0227521 0.0195535 0.0657827 -0.0197996 0.0225383 0.0678864 
0.0275499 -0.0118745 0.0507714 0.0275408 -0.0118956 0.0557923 0.0256063 -0.0156306 0.0533089 
-0.0199789 0.0223795 0.0484625 -0.0165939 0.0249929 0.050946 -0.0165818 0.0250009 0.0459919 
-0.0297967 0.003487 0.0706863 -0.0297941 0.00350863 0.0756704 -0.0290536 0.00747574 0.0732487 
-0.0274841 0.012026 0.0410105 -0.0289198 0.00797775 0.0434826 -0.0274857 0.0120224 0.0459688 
-0.0254842 0.015829 0.0385369 -0.0274811 0.0120328 0.0360531 -0.0274841 0.012026 0.0410105 
-0.0296122 -0.00480829 0.0558592 -0.0286202 -0.00899352 0.0583297 -0.0296101 -0.00482114 0.0608146 
0.0272021 0.0126509 0.046026 0.0287363 0.00861529 0.043544 0.0272085 0.0126372 0.0410563 
-0.0295842 -0.00497768 0.0706808 -0.0299917 -0.000706058 0.072884 -0.0299925 -0.000672162 0.0681598 
-0.0289217 0.00797077 0.0484394 -0.0289216 0.0079713 0.0533978 -0.0274804 0.0120344 0.0509322 
-0.00784369 -0.0289565 0.0409337 -0.00362572 -0.0297801 0.0384441 -0.00362106 -0.0297807 0.0434093 
-0.0130627 0.0270068 0.0632941 -0.0132343 0.0269231 0.0681347 -0.00924118 0.0285412 0.065983 
0.0288784 -0.0081264 0.0385865 0.0274246 -0.012161 0.0358907 0.0288525 -0.00821797 0.0336559 
-0.0289154 0.00799358 0.0335679 -0.0297607 0.00378148 0.0360399 -0.0289178 0.00798499 0.0385254 
0.0131386 -0.02697 0.048353 0.0168416 -0.0248266 0.0458615 0.0168413 -0.0248268 0.0508361 
0.00811101 0.0288827 0.0509893 0.00389662 0.0297459 0.0534653 0.00809815 0.0288863 0.0559506 
-0.0299958 -0.000498983 0.0335569 -0.0299957 -0.000509448 0.0385132 -0.0297607 0.00378148 0.0360399 
-0.0191827 -0.0230656 0.0583124 -0.019186 -0.0230629 0.0533534 -0.0156949 -0.025567 0.0558274 
0.0256063 -0.0156306 0.0533089 0.0275408 -0.0118956 0.0557923 0.0256275 -0.0155959 0.0583046 
-0.0289198 0.00797775 0.0434826 -0.0297628 0.00376507 0.0459541 -0.0289217 0.00797077 0.0484394 
-0.0289198 0.00797775 0.0434826 -0.0289217 0.00797077 0.0484394 -0.0274857 0.0120224 0.0459688 
-0.029762 0.00377141 0.0409976 -0.0299955 -0.000517653 0.0434698 -0.0297628 0.00376507 0.0459541 
0.0168413 -0.0248268 0.0508361 0.0202263 -0.0221562 0.0533218 0.0168646 -0.024811 0.0558068 
0.0250886 0.0164488 0.0584673 0.0271931 0.0126703 0.0559907 0.0250985 0.0164336 0.0534907 
-0.0297633 0.00376116 0.0509111 -0.0297625 0.00376772 0.0558731 -0.0289216 0.0079713 0.0533978 
-0.0285673 -0.00916029 0.0727966 -0.0295842 -0.00497768 0.0706808 -0.0285903 -0.0090881 0.0681544 
0.0159356 0.0254176 0.0559603 0.0194115 0.0228734 0.0534805 0.0159489 0.0254093 0.0509967 
-0.0299955 -0.000517653 0.0434698 -0.0296142 -0.00479604 0.045942 -0.0299954 -0.000524057 0.0484259 
-0.0274811 0.0120328 0.0360531 -0.0289154 0.00799358 0.0335679 -0.0289178 0.00798499 0.0385254 
-0.0299955 -0.000517653 0.0434698 -0.0299954 -0.000524057 0.0484259 -0.0297628 0.00376507 0.0459541 
0.0169091 -0.0247807 0.0657154 0.0169668 -0.0247412 0.0706842 0.0131937 -0.026943 0.0682097 
-0.0254865 0.0158252 0.0434957 -0.0274841 0.012026 0.0410105 -0.0274857 0.0120224 0.0459688 
0.0250886 0.0164488 0.0584673 0.0250683 0.0164797 0.0634779 0.0271813 0.0126955 0.0609882 
-0.0297967 0.003487 0.0706863 -0.0290536 0.00747574 0.0732487 -0.0289287 0.00794543 0.0682673 
-0.0289198 0.00797775 0.0434826 -0.029762 0.00377141 0.0409976 -0.0297628 0.00376507 0.0459541 
0.0250985 0.0164336 0.0534907 0.02249 0.0198545 0.0509959 0.0224771 0.019869 0.0559721 
-0.0299925 -0.000672162 0.0681598 -0.0297967 0.003487 0.0706863 -0.0297674 0.00372845 0.0657853 
-0.0166091 0.0249828 0.0558985 -0.0199619 0.0223947 0.0583496 -0.0166374 0.0249639 0.0608087 
-0.016577 0.0250041 0.0410339 -0.019973 0.0223848 0.0385482 -0.0199768 0.0223814 0.0435065 
-0.0274857 0.0120224 0.0459688 -0.0274804 0.0120344 0.0509322 -0.0254839 0.0158294 0.0484552 
-0.019207 -0.0230454 0.0285603 -0.0157219 -0.0255504 0.0260653 -0.0157184 -0.0255526 0.0310295 
-0.0118906 -0.027543 0.048383 -0.0118843 -0.0275457 0.0533426 -0.0156996 -0.0255641 0.0508681 
-0.000569289 0.0299946 0.0658865 -0.000527162 0.0299954 0.0707463 0.00376878 0.0297623 0.0683282 
-0.0270589 -0.0129544 0.0360177 -0.0249314 -0.0166861 0.038489 -0.027056 -0.0129604 0.0409736 
-0.0285903 -0.0090881 0.0681544 -0.0295842 -0.00497768 0.0706808 -0.0295988 -0.0048898 0.0657621 
0.0271813 0.0126955 0.0609882 0.028725 0.00865285 0.0585265 0.0271931 0.0126703 0.0559907 
-0.0296153 -0.00478916 0.0409857 -0.0286276 -0.00897005 0.0434577 -0.0296142 -0.00479604 0.045942 
-0.0229654 0.0193025 0.0410223 -0.0254842 0.015829 0.0385369 -0.0254865 0.0158252 0.0434957 
-0.0286258 -0.00897577 0.0484143 -0.0296132 -0.00480194 0.0508993 -0.0296142 -0.00479604 0.045942 
0.0158933 0.0254441 0.0609193 0.0193961 0.0228865 0.0584513 0.0159356 0.0254176 0.0559603 
-0.0270407 -0.0129923 0.0657388 -0.0285903 -0.0090881 0.0681544 -0.0286083 -0.00903123 0.063276 
-0.0286276 -0.00897005 0.0434577 -0.0270533 -0.012966 0.0459299 -0.0286258 -0.00897577 0.0484143 
0.022453 0.0198963 0.0609508 0.0250886 0.0164488 0.0584673 0.0224771 0.019869 0.0559721 
-0.0296142 -0.00479604 0.045942 -0.0296132 -0.00480194 0.0508993 -0.0299954 -0.000524057 0.0484259 
-0.0254809 0.0158343 0.0335775 -0.0254842 0.015829 0.0385369 -0.022962 0.0193067 0.0360642 
0.0171917 -0.0245855 0.075916 0.0155927 -0.0256294 0.0803053 0.0126602 -0.0271978 0.0780262 
-0.0286276 -0.00897005 0.0434577 -0.0286258 -0.00897577 0.0484143 -0.0296142 -0.00479604 0.045942 
-0.0295988 -0.0048898 0.0657621 -0.0299925 -0.000672162 0.0681598 -0.0299949 -0.000552234 0.0632986 
-0.0223018 -0.0200657 0.0310472 -0.0222981 -0.0200697 0.0260847 -0.019207 -0.0230454 0.0285603 
-0.0289217 0.00797077 0.0484394 -0.0274804 0.0120344 0.0509322 -0.0274857 0.0120224 0.0459688 
-0.0286276 -0.00897005 0.0434577 -0.027056 -0.0129604 0.0409736 -0.0270533 -0.012966 0.0459299 
-0.0299955 -0.000517653 0.0434698 -0.0296153 -0.00478916 0.0409857 -0.0296142 -0.00479604 0.045942 
0.00386038 0.0297506 0.0733028 0.00753375 0.0290386 0.0757509 0.00795195 0.0289269 0.0707407 
-0.0254809 0.0158343 0.0335775 -0.0274811 0.0120328 0.0360531 -0.0254842 0.015829 0.0385369 
-0.00760666 -0.0290196 0.0754184 -0.00297491 -0.0298521 0.076544 -0.00585665 -0.0294228 0.0794869 
0.025602 -0.0156377 0.048352 0.0255601 -0.015706 0.0434147 0.0275166 -0.0119515 0.0459006 
-0.0199768 0.0223814 0.0435065 -0.019973 0.0223848 0.0385482 -0.0229654 0.0193025 0.0410223 
-0.0222791 -0.0200908 0.060794 -0.0222802 -0.0200897 0.0558388 -0.0191827 -0.0230656 0.0583124 
-0.0254865 0.0158252 0.0434957 -0.0254842 0.015829 0.0385369 -0.0274841 0.012026 0.0410105 
-0.0223018 -0.0200657 0.0310472 -0.024938 -0.0166762 0.0285721 -0.0222981 -0.0200697 0.0260847 
-0.0285903 -0.0090881 0.0681544 -0.0295988 -0.0048898 0.0657621 -0.0286083 -0.00903123 0.063276 
-0.0289217 0.00797077 0.0484394 -0.0297633 0.00376116 0.0509111 -0.0289216 0.0079713 0.0533978 
-0.0249246 -0.0166962 0.0484022 -0.0270508 -0.0129712 0.0508874 -0.0270533 -0.012966 0.0459299 
-0.0199398 0.0224144 0.0632869 -0.0199619 0.0223947 0.0583496 -0.0228884 0.0193938 0.0608327 
-0.0270407 -0.0129923 0.0657388 -0.0286083 -0.00903123 0.063276 -0.0270444 -0.0129846 0.0608013 
-0.0228884 0.0193938 0.0608327 -0.0253617 0.0160245 0.0633268 -0.0227521 0.0195535 0.0657827 
0.03 -7.34788e-18 0.0437237 0.0297246 -0.00405578 0.0459327 0.0297263 -0.00404294 0.0411233 
-0.0286258 -0.00897577 0.0484143 -0.0286238 -0.00898217 0.0533728 -0.0296132 -0.00480194 0.0508993 
-0.0270407 -0.0129923 0.0657388 -0.0270444 -0.0129846 0.0608013 -0.024915 -0.0167105 0.0632744 
-0.0299925 -0.000672162 0.0681598 -0.0297674 0.00372845 0.0657853 -0.0299949 -0.000552234 0.0632986 
-0.00902008 0.0286119 0.0608938 -0.0129293 0.0270709 0.0583782 -0.0130627 0.0270068 0.0632941 
-0.0270533 -0.012966 0.0459299 -0.0270508 -0.0129712 0.0508874 -0.0286258 -0.00897577 0.0484143 
-0.0297967 0.003487 0.0706863 -0.0289287 0.00794543 0.0682673 -0.0297674 0.00372845 0.0657853 
-0.0270444 -0.0129846 0.0608013 -0.0270481 -0.012977 0.0558473 -0.024918 -0.0167061 0.0583219 
-0.0249214 -0.016701 0.0533616 -0.0270508 -0.0129712 0.0508874 -0.0249246 -0.0166962 0.0484022 
-0.0290536 0.00747574 0.0732487 -0.0271371 0.0127897 0.0714271 -0.0289287 0.00794543 0.0682673 
-0.0249278 -0.0166914 0.0434454 -0.0222928 -0.0200756 0.0409611 -0.0222885 -0.0200804 0.0459178 
-0.024915 -0.0167105 0.0632744 -0.024918 -0.0167061 0.0583219 -0.0222791 -0.0200908 0.060794 
-0.0254397 0.0159004 0.0583779 -0.0274414 0.0121231 0.060881 -0.0253617 0.0160245 0.0633268 
-0.027056 -0.0129604 0.0409736 -0.0249278 -0.0166914 0.0434454 -0.0270533 -0.012966 0.0459299 
-0.0157219 -0.0255504 0.0260653 -0.0119095 -0.0275348 0.0285375 -0.0157184 -0.0255526 0.0310295 
-0.0296153 -0.00478916 0.0409857 -0.0286299 -0.00896271 0.0385013 -0.0286276 -0.00897005 0.0434577 
-0.029617 -0.00477853 0.0360293 -0.0299957 -0.000509448 0.0385132 -0.0299958 -0.000498983 0.0335569 
-0.0249278 -0.0166914 0.0434454 -0.0249246 -0.0166962 0.0484022 -0.0270533 -0.012966 0.0459299 
-0.0249278 -0.0166914 0.0434454 -0.0222885 -0.0200804 0.0459178 -0.0249246 -0.0166962 0.0484022 
-0.00782531 -0.0289614 0.0558168 -0.00360797 -0.0297823 0.0533334 -0.00360589 -0.0297825 0.0582903 
-0.0164084 0.025115 0.0837237 -0.0143363 0.0263528 0.0794689 -0.0184461 0.0236589 0.0794694 
0.00496861 -0.0295857 0.0533308 0.00497511 -0.0295846 0.05829 0.000688203 -0.0299921 0.0558109 
-0.00736456 0.029082 0.0837237 -0.00492678 0.0295927 0.079341 -0.00975576 0.0283694 0.0794457 
0.03 -7.34788e-18 0.0837237 0.0297846 -0.00358885 0.0801139 0.03 -7.34788e-18 0.0787237 
0.00493704 -0.029591 0.0284968 0.00911884 -0.0285805 0.0260025 0.00912065 -0.02858 0.0309737 
-0.024938 -0.0166762 0.0285721 -0.0270639 -0.012944 0.0310597 -0.0270698 -0.0129316 0.0260981 
0.0251048 0.016424 0.0485116 0.0272021 0.0126509 0.046026 0.0251119 0.0164132 0.0435417 
0.028725 0.00865285 0.0585265 0.028733 0.0086264 0.0535326 0.0271931 0.0126703 0.0559907 
0.0297181 -0.0041029 0.0561378 0.0288929 -0.00807454 0.0533185 0.029721 -0.00408211 0.0511998 
-0.0286384 -0.00893529 0.0285872 -0.029619 -0.00476614 0.0310743 -0.029623 -0.00474124 0.0261215 
0.023124 -0.0191124 0.0458748 0.0255601 -0.015706 0.0434147 0.025602 -0.0156377 0.048352 
0.00753375 0.0290386 0.0757509 0.0122932 0.0273656 0.0768132 0.0118367 0.0275662 0.072923 
-0.0249343 -0.0166817 0.0732026 -0.0270769 -0.0129166 0.0751819 -0.0270191 -0.0130372 0.0705902 
-0.0297578 0.00380405 0.0261258 -0.0297591 0.00379443 0.0310817 -0.0289126 0.00800396 0.0286084 
0.0230922 -0.0191507 0.0409159 0.0255601 -0.015706 0.0434147 0.023124 -0.0191124 0.0458748 
-0.0299961 -0.000481185 0.0286015 -0.0297591 0.00379443 0.0310817 -0.0297578 0.00380405 0.0261258 
-0.0166761 0.0249381 0.0705159 -0.0196574 0.0226625 0.0716709 -0.0166893 0.0249292 0.0753995 
0.00914992 -0.0285706 0.0558085 0.0131502 -0.0269643 0.0582837 0.00916363 -0.0285662 0.0607688 
-0.0199674 0.0223898 0.0335894 -0.022962 0.0193067 0.0360642 -0.019973 0.0223848 0.0385482 
0.0250886 0.0164488 0.0584673 0.0250985 0.0164336 0.0534907 0.0224771 0.019869 0.0559721 
0.0158933 0.0254441 0.0609193 0.0158025 0.0255006 0.0658415 0.0193237 0.0229476 0.0634238 
-0.029619 -0.00476614 0.0310743 -0.0299961 -0.000481185 0.0286015 -0.029623 -0.00474124 0.0261215 
-0.0274736 0.0120499 0.02614 -0.0274774 0.0120413 0.0310964 -0.0254761 0.015842 0.028621 
-0.0289126 0.00800396 0.0286084 -0.0274774 0.0120413 0.0310964 -0.0274736 0.0120499 0.02614 
-0.0271371 0.0127897 0.0714271 -0.0273778 0.0122661 0.0659382 -0.0289287 0.00794543 0.0682673 
-0.00782986 -0.0289602 0.0508577 -0.00360797 -0.0297823 0.0533334 -0.00782531 -0.0289614 0.0558168 
-0.0254761 0.015842 0.028621 -0.0229574 0.0193121 0.0311036 -0.0229534 0.0193168 0.0261475 
-0.0229534 0.0193168 0.0261475 -0.0229574 0.0193121 0.0311036 -0.0199627 0.022394 0.0286287 
0.00974098 0.0283745 0.0794339 0.00499562 0.0295811 0.079466 0.00736456 0.029082 0.0837237 
-0.0128028 0.027131 0.0286336 -0.00880102 0.02868 0.0311286 -0.00876977 0.0286896 0.0261672 
-0.0128028 0.027131 0.0286336 -0.0165507 0.0250215 0.0261434 -0.0165617 0.0250142 0.0311152 
0.0275166 -0.0119515 0.0459006 0.0288978 -0.00805702 0.0483828 0.0275499 -0.0118745 0.0507714 
-0.00876977 0.0286896 0.0261672 -0.00880102 0.02868 0.0311286 -0.00461328 0.0296432 0.0286644 
0.0250269 0.0165425 0.0735835 0.0271795 0.0126993 0.0709055 0.0250431 0.0165179 0.0684892 
-0.0184461 0.0236589 0.0794694 -0.0220614 0.0203296 0.0794605 -0.0203184 0.0220717 0.0837237 
0.0287363 0.00861529 0.043544 0.0287431 0.00859267 0.0385941 0.0272085 0.0126372 0.0410563 
0.0184264 -0.0236742 0.0794339 0.0220504 -0.0203416 0.0794635 0.0203184 -0.0220717 0.0837237 
-0.0199674 0.0223898 0.0335894 -0.019973 0.0223848 0.0385482 -0.0165704 0.0250085 0.0360754 
-0.0299954 -0.000524057 0.0484259 -0.0297633 0.00376116 0.0509111 -0.0297628 0.00376507 0.0459541 
-0.0297967 0.003487 0.0706863 -0.0299917 -0.000706058 0.072884 -0.0297941 0.00350863 0.0756704 
0.00916909 -0.0285644 0.0657282 0.00914953 -0.0285707 0.0706822 0.00496394 -0.0295865 0.0682157 
-0.000384935 0.0299975 0.0509786 0.00390766 0.0297444 0.0485047 -0.000375922 0.0299976 0.0460179 
-0.0165507 0.0250215 0.0261434 -0.0199627 0.022394 0.0286287 -0.0165617 0.0250142 0.0311152 
0.0223889 0.0199684 0.0659566 0.0250683 0.0164797 0.0634779 0.022453 0.0198963 0.0609508 
-0.0270698 -0.0129316 0.0260981 -0.0270639 -0.012944 0.0310597 -0.0286384 -0.00893529 0.0285872 
0.0256067 -0.01563 0.0632643 0.0275099 -0.0119669 0.0657922 0.0255794 -0.0156746 0.0682574 
-0.0295988 -0.0048898 0.0657621 -0.0299949 -0.000552234 0.0632986 -0.0296101 -0.00482114 0.0608146 
0.0225248 0.019815 0.02618 0.019454 0.0228373 0.0286678 0.0225381 0.0197998 0.0311567 
-0.0263842 0.0142784 0.0837237 -0.025094 0.0164405 0.0794381 -0.0273396 0.0123509 0.0794474 
-0.0270444 -0.0129846 0.0608013 -0.024918 -0.0167061 0.0583219 -0.024915 -0.0167105 0.0632744 
0.019454 0.0228373 0.0286678 0.0159468 0.0254106 0.026181 0.015987 0.0253853 0.0311479 
0.00247738 0.0298975 0.0837237 0.00499562 0.0295811 0.079466 4.08595e-05 0.03 0.0794623 
0.0159468 0.0254106 0.026181 0.0121525 0.0274284 0.0286683 0.015987 0.0253853 0.0311479 
-0.0142784 -0.0263842 0.0794339 -0.00974098 -0.0283745 0.0794339 -0.0120509 -0.0274732 0.0837237 
-0.0129293 0.0270709 0.0583782 -0.0166091 0.0249828 0.0558985 -0.0166374 0.0249639 0.0608087 
0.022453 0.0198963 0.0609508 0.0224771 0.019869 0.0559721 0.0193961 0.0228865 0.0584513 
-0.0286276 -0.00897005 0.0434577 -0.0286299 -0.00896271 0.0385013 -0.027056 -0.0129604 0.0409736 
-0.0192072 -0.0230453 0.0335192 -0.0157166 -0.0255536 0.0359894 -0.019202 -0.0230496 0.0384765 
-0.0128338 0.0271163 0.0385607 -0.0128226 0.0271216 0.0336008 -0.0165704 0.0250085 0.0360754 
0.000685382 -0.0299922 0.0657266 0.000687804 -0.0299921 0.0607677 0.00497803 -0.0295841 0.0632474 
-0.0270508 -0.0129712 0.0508874 -0.0286238 -0.00898217 0.0533728 -0.0286258 -0.00897577 0.0484143 
-0.0286299 -0.00896271 0.0385013 -0.0270589 -0.0129544 0.0360177 -0.027056 -0.0129604 0.0409736 
0.0272021 0.0126509 0.046026 0.0272085 0.0126372 0.0410563 0.0251119 0.0164132 0.0435417 
0.0272336 0.0125829 0.0261931 0.0272358 0.0125782 0.0311655 0.0287571 0.00854579 0.0286915 
-0.00736456 -0.029082 0.0837237 -0.00974098 -0.0283745 0.0794339 -0.00585665 -0.0294228 0.0794869 
-0.00464491 0.0296382 0.038571 -0.00462888 0.0296407 0.0336163 -0.00882299 0.0286732 0.0360871 
-0.0295988 -0.0048898 0.0657621 -0.0296101 -0.00482114 0.0608146 -0.0286083 -0.00903123 0.063276 
-0.000357296 0.0299979 0.0360973 -0.00462888 0.0296407 0.0336163 -0.00464491 0.0296382 0.038571 
-0.00360826 -0.0297822 0.0632392 -0.00361194 -0.0297818 0.0681401 -0.00782288 -0.0289621 0.0657117 
-0.0199398 0.0224144 0.0632869 -0.0228884 0.0193938 0.0608327 -0.0227521 0.0195535 0.0657827 
0.025602 -0.0156377 0.048352 0.0275499 -0.0118745 0.0507714 0.0256063 -0.0156306 0.0533089 
-0.0299953 -0.000532277 0.0583456 -0.0296122 -0.00480829 0.0558592 -0.0296101 -0.00482114 0.0608146 
0.0255601 -0.015706 0.0434147 0.0274671 -0.0120648 0.0410835 0.0275166 -0.0119515 0.0459006 
0.00392281 0.0297424 0.0286721 0.00814182 0.028874 0.0311504 0.008107 0.0288838 0.0261944 
0.0236742 -0.0184264 0.0837237 0.0220504 -0.0203416 0.0794635 0.025115 -0.0164084 0.0794339 
-0.0299949 -0.000552234 0.0632986 -0.0299953 -0.000532277 0.0583456 -0.0296101 -0.00482114 0.0608146 
-0.0254397 0.0159004 0.0583779 -0.0274681 0.0120624 0.0559008 -0.0274414 0.0121231 0.060881 
-0.00975576 0.0283694 0.0794457 -0.0143363 0.0263528 0.0794689 -0.0120509 0.0274732 0.0837237 
-0.0228884 0.0193938 0.0608327 -0.0254397 0.0159004 0.0583779 -0.0253617 0.0160245 0.0633268 
-0.0249996 -0.0165837 0.0792552 -0.0219258 -0.0204758 0.0794261 -0.0236742 -0.0184264 0.0837237 
0.0131386 -0.02697 0.048353 0.0131278 -0.0269752 0.0433813 0.0168416 -0.0248266 0.0458615 
-0.0236742 0.0184264 0.0837237 -0.0220614 0.0203296 0.0794605 -0.025094 0.0164405 0.0794381 
-0.00360589 -0.0297825 0.0582903 0.000687804 -0.0299921 0.0607677 -0.00360826 -0.0297822 0.0632392 
0.0193237 0.0229476 0.0634238 0.022453 0.0198963 0.0609508 0.0193961 0.0228865 0.0584513 
4.08595e-05 0.03 0.0794623 0.002524 0.0298936 0.0767028 -0.000571711 0.0299946 0.0751555 
-0.000349677 0.029998 0.0311429 0.00392281 0.0297424 0.0286721 -0.000355799 0.0299979 0.0261953 
-0.0273396 0.0123509 0.0794474 -0.0289239 0.00796289 0.0794249 -0.0283745 0.00974098 0.0837237 
-0.0289101 0.0080129 0.0633262 -0.0273778 0.0122661 0.0659382 -0.0274414 0.0121231 0.060881 
0.00813823 0.0288751 0.0361079 0.00392991 0.0297415 0.0336243 0.00392504 0.0297421 0.0385816 
-0.029082 -0.00736456 0.0794339 -0.0274732 -0.0120509 0.0794339 -0.0283745 -0.00974098 0.0837237 
-0.0222847 -0.0200847 0.0508768 -0.0249214 -0.016701 0.0533616 -0.0249246 -0.0166962 0.0484022 
-0.0223143 -0.0200517 0.0750969 -0.0198556 -0.022489 0.0764687 -0.0219258 -0.0204758 0.0794261 
0.0121858 0.0274136 0.0336306 0.00813823 0.0288751 0.0361079 0.0121797 0.0274163 0.0385932 
-0.0297941 0.00350863 0.0756704 -0.0299995 -0.000164879 0.0767466 -0.0298975 0.00247738 0.0799955 
-0.0297674 0.00372845 0.0657853 -0.0297625 0.00376752 0.0608326 -0.0299949 -0.000552234 0.0632986 
-0.000473653 0.0299963 0.0609101 0.00380237 0.0297581 0.0633956 0.00388685 0.0297471 0.0584267 
-0.00782402 -0.0289618 0.0607736 -0.00782288 -0.0289621 0.0657117 -0.0118785 -0.0275482 0.0632521 
-0.0227521 0.0195535 0.0657827 -0.0252092 0.0162634 0.0681355 -0.0224533 0.019896 0.0710324 
-0.0297625 0.00376752 0.0608326 -0.0299953 -0.000532277 0.0583456 -0.0299949 -0.000552234 0.0632986 
-0.024918 -0.0167061 0.0583219 -0.0222802 -0.0200897 0.0558388 -0.0222791 -0.0200908 0.060794 
0.0154644 0.025707 0.0755395 0.0122932 0.0273656 0.0768132 0.0142784 0.0263842 0.0798948 
-0.0274732 -0.0120509 0.0794339 -0.0283743 -0.00974148 0.0767631 -0.0270769 -0.0129166 0.0751819 
0.0118367 0.0275662 0.072923 0.0122932 0.0273656 0.0768132 0.0154644 0.025707 0.0755395 
-0.0222885 -0.0200804 0.0459178 -0.0222847 -0.0200847 0.0508768 -0.0249246 -0.0166962 0.0484022 
-0.0184461 0.0236589 0.0794694 -0.0203773 0.0220174 0.075429 -0.0220614 0.0203296 0.0794605 
-0.000261222 -0.0299989 0.0799193 -0.00297491 -0.0298521 0.076544 0.000490621 -0.029996 0.07562 
-0.025094 0.0164405 0.0794381 -0.0261034 0.0147856 0.0752304 -0.0273396 0.0123509 0.0794474 
-0.00785235 -0.0289541 0.0310047 -0.00786309 -0.0289512 0.0260458 -0.00363806 -0.0297786 0.0285149 
0.029745 -0.00390313 0.0760806 0.0297846 -0.00358885 0.0801139 0.0289189 -0.00798104 0.0797417 
-0.0254397 0.0159004 0.0583779 -0.0254683 0.0158546 0.0534164 -0.0274681 0.0120624 0.0559008 
0.025144 0.0163639 0.0286757 0.0272358 0.0125782 0.0311655 0.0272336 0.0125829 0.0261931 
0.0184264 -0.0236742 0.0794339 0.0202524 -0.0221324 0.0767016 0.0220504 -0.0203416 0.0794635 
0.000490621 -0.029996 0.07562 -0.00297491 -0.0298521 0.076544 -0.0035739 -0.0297864 0.0727919 
-0.0222802 -0.0200897 0.0558388 -0.019186 -0.0230629 0.0533534 -0.0191827 -0.0230656 0.0583124 
-0.00464491 0.0296382 0.038571 -0.00882299 0.0286732 0.0360871 -0.00883376 0.0286699 0.0410459 
-0.00975576 0.0283694 0.0794457 -0.0130304 0.0270224 0.0754793 -0.0143363 0.0263528 0.0794689 
-0.0197996 0.0225383 0.0678864 -0.0196574 0.0226625 0.0716709 -0.0166761 0.0249381 0.0705159 
-0.0228884 0.0193938 0.0608327 -0.0229363 0.0193371 0.0558869 -0.0254397 0.0159004 0.0583779 
-0.00494722 0.0295893 0.0732561 -0.000527162 0.0299954 0.0707463 -0.0050392 0.0295737 0.068399 
0.0289012 0.00804489 0.0794704 0.0297817 0.00361278 0.08009 0.0297081 0.00417465 0.075972 
0.000683285 -0.0299922 0.0508509 -0.00360797 -0.0297823 0.0533334 -0.00361468 -0.0297814 0.0483731 
0.0251298 0.0163858 0.0385893 0.0272251 0.0126013 0.0361099 0.0251434 0.0163649 0.0336404 
-0.0270444 -0.0129846 0.0608013 -0.0286202 -0.00899352 0.0583297 -0.0270481 -0.012977 0.0558473 
0.0131386 -0.02697 0.048353 0.0131407 -0.0269689 0.0533221 0.00914643 -0.0285717 0.0508443 
-0.0297628 0.00376507 0.0459541 -0.0297633 0.00376116 0.0509111 -0.0289217 0.00797077 0.0484394 
-0.0142784 -0.0263842 0.0794339 -0.0120513 -0.027473 0.0767936 -0.00974098 -0.0283745 0.0794339 
-0.029082 -0.00736456 0.0794339 -0.0283743 -0.00974148 0.0767631 -0.0274732 -0.0120509 0.0794339 
-0.0166761 0.0249381 0.0705159 -0.0135939 0.0267433 0.0718973 -0.0132343 0.0269231 0.0681347 
0.00499562 0.0295811 0.079466 0.002524 0.0298936 0.0767028 4.08595e-05 0.03 0.0794623 
0.0194517 0.0228393 0.0385977 0.0225299 0.0198092 0.036118 0.0194616 0.0228308 0.0336355 
-0.0118906 -0.027543 0.048383 -0.00782986 -0.0289602 0.0508577 -0.0118843 -0.0275457 0.0533426 
-0.0224533 0.019896 0.0710324 -0.0251556 0.0163461 0.0721049 -0.0236742 0.0184264 0.0753901 
-0.0050392 0.0295737 0.068399 -0.000527162 0.0299954 0.0707463 -0.000569289 0.0299946 0.0658865 
-0.0161629 -0.0252737 0.0754553 -0.0120513 -0.027473 0.0767936 -0.0142784 -0.0263842 0.0794339 
0.0225299 0.0198092 0.036118 0.0251298 0.0163858 0.0385893 0.0251434 0.0163649 0.0336404 
-0.0299917 -0.000706058 0.072884 -0.0299995 -0.000164879 0.0767466 -0.0297941 0.00350863 0.0756704 
-0.0229363 0.0193371 0.0558869 -0.0254683 0.0158546 0.0534164 -0.0254397 0.0159004 0.0583779 
-0.0296101 -0.00482114 0.0608146 -0.0286202 -0.00899352 0.0583297 -0.0286083 -0.00903123 0.063276 
0.015983 0.0253879 0.0361159 0.0194517 0.0228393 0.0385977 0.0194616 0.0228308 0.0336355 
0.00914121 -0.0285734 0.0458756 0.00914643 -0.0285717 0.0508443 0.00496282 -0.0295867 0.0483656 
-0.000473653 0.0299963 0.0609101 0.00388685 0.0297471 0.0584267 -0.000397187 0.0299974 0.0559385 
0.0222925 0.0200759 0.0710442 0.0250269 0.0165425 0.0735835 0.0250431 0.0165179 0.0684892 
-0.0299925 -0.000672162 0.0681598 -0.0299917 -0.000706058 0.072884 -0.0297967 0.003487 0.0706863 
-0.0219258 -0.0204758 0.0794261 -0.0198556 -0.022489 0.0764687 -0.0183217 -0.0237553 0.079455 
0.0121858 0.0274136 0.0336306 0.0121797 0.0274163 0.0385932 0.015983 0.0253879 0.0361159 
0.0287431 0.00859267 0.0385941 0.0287571 0.00854569 0.0336361 0.0272251 0.0126013 0.0361099 
-0.0129293 0.0270709 0.0583782 -0.0128847 0.0270922 0.0534316 -0.0166091 0.0249828 0.0558985 
-0.0191692 -0.0230769 0.0731835 -0.0198556 -0.022489 0.0764687 -0.0223143 -0.0200517 0.0750969 
-0.000571711 0.0299946 0.0751555 0.002524 0.0298936 0.0767028 0.00386038 0.0297506 0.0733028 
0.00814182 0.028874 0.0311504 0.0121525 0.0274284 0.0286683 0.008107 0.0288838 0.0261944 
-0.0219258 -0.0204758 0.0794261 -0.0183217 -0.0237553 0.079455 -0.0203184 -0.0220717 0.0837237 
0.0287431 0.00859267 0.0385941 0.0296729 0.00441821 0.03614 0.0287571 0.00854569 0.0336361 
0.0142784 0.0263842 0.0798948 0.0122932 0.0273656 0.0768132 0.00974098 0.0283745 0.0794339 
0.0168416 -0.0248266 0.0458615 0.0202026 -0.0221778 0.0483515 0.0168413 -0.0248268 0.0508361 
-0.0298975 0.00247738 0.0799955 -0.0299995 -0.000164879 0.0767466 -0.0298387 -0.00310698 0.0794715 
-0.0297674 0.00372845 0.0657853 -0.0289101 0.0080129 0.0633262 -0.0297625 0.00376752 0.0608326 
-0.0253617 0.0160245 0.0633268 -0.0252092 0.0162634 0.0681355 -0.0227521 0.0195535 0.0657827 
0.0297233 -0.00406542 0.0361855 0.0288784 -0.0081264 0.0385865 0.0288525 -0.00821797 0.0336559 
-0.0118812 -0.027547 0.058301 -0.00782402 -0.0289618 0.0607736 -0.0118785 -0.0275482 0.0632521 
0.000670816 -0.0299925 0.04092 0.00494989 -0.0295888 0.0384302 0.0049563 -0.0295878 0.0433976 
0.00799583 0.0289148 0.0658532 0.0119491 0.0275176 0.0682476 0.0120857 0.0274579 0.0633714 
0.00392991 0.0297415 0.0336243 -0.000357296 0.0299979 0.0360973 0.00392504 0.0297421 0.0385816 
-0.0128338 0.0271163 0.0385607 -0.00882299 0.0286732 0.0360871 -0.0128226 0.0271216 0.0336008 
-0.0166091 0.0249828 0.0558985 -0.0199754 0.0223826 0.0534153 -0.0199619 0.0223947 0.0583496 
0.00386038 0.0297506 0.0733028 0.00795195 0.0289269 0.0707407 0.00376878 0.0297623 0.0683282 
0.03 -7.34788e-18 0.0387237 0.0297233 -0.00406542 0.0361855 0.03 -7.34788e-18 0.0337237 
0.00807342 0.0288932 0.0609148 0.00809815 0.0288863 0.0559506 0.00388685 0.0297471 0.0584267 
0.0220504 -0.0203416 0.0794635 0.0202524 -0.0221324 0.0767016 0.0229611 -0.0193077 0.0753289 
-0.0252092 0.0162634 0.0681355 -0.0251556 0.0163461 0.0721049 -0.0224533 0.019896 0.0710324 
-0.0286083 -0.00903123 0.063276 -0.0286202 -0.00899352 0.0583297 -0.0270444 -0.0129846 0.0608013 
0.03 -7.34788e-18 0.0787237 0.0297846 -0.00358885 0.0801139 0.029745 -0.00390313 0.0760806 
-0.0228884 0.0193938 0.0608327 -0.0199619 0.0223947 0.0583496 -0.0229363 0.0193371 0.0558869 
-0.0261034 0.0147856 0.0752304 -0.0278518 0.0111479 0.0756681 -0.0273396 0.0123509 0.0794474 
-0.0270769 -0.0129166 0.0751819 -0.0283743 -0.00974148 0.0767631 -0.0285673 -0.00916029 0.0727966 
0.0297081 0.00417465 0.075972 0.0297817 0.00361278 0.08009 0.03 -7.34788e-18 0.0787237 
0.0288848 -0.00810373 0.0435117 0.0297246 -0.00405578 0.0459327 0.0288978 -0.00805702 0.0483828 
-0.00883376 0.0286699 0.0410459 -0.00882299 0.0286732 0.0360871 -0.0128338 0.0271163 0.0385607 
-0.0236742 0.0184264 0.0753901 -0.0251556 0.0163461 0.0721049 -0.0261034 0.0147856 0.0752304 
0.00380237 0.0297581 0.0633956 0.00799583 0.0289148 0.0658532 0.00807342 0.0288932 0.0609148 
0.0193237 0.0229476 0.0634238 0.0223889 0.0199684 0.0659566 0.022453 0.0198963 0.0609508 
0.015983 0.0253879 0.0361159 0.0159713 0.0253952 0.0410817 0.0194517 0.0228393 0.0385977 
0.000685382 -0.0299922 0.0657266 0.00496394 -0.0295865 0.0682157 0.000690357 -0.0299921 0.0706864 
-0.0118975 -0.0275399 0.0434223 -0.0118906 -0.027543 0.048383 -0.0157056 -0.0255604 0.0459081 
-0.00360826 -0.0297822 0.0632392 0.000685382 -0.0299922 0.0657266 -0.00361194 -0.0297818 0.0681401 
0.03 -7.34788e-18 0.0337237 0.0296729 0.00441821 0.03614 0.03 -7.34788e-18 0.0387237 
0.0168413 -0.0248268 0.0508361 0.0168646 -0.024811 0.0558068 0.0131407 -0.0269689 0.0533221 
-0.00585665 -0.0294228 0.0794869 -0.00297491 -0.0298521 0.076544 -0.000261222 -0.0299989 0.0799193 
0.0131178 -0.0269801 0.0384123 0.0168089 -0.0248488 0.035916 0.0168315 -0.0248334 0.0408832 
0.0171917 -0.0245855 0.075916 0.0202524 -0.0221324 0.0767016 0.0184264 -0.0236742 0.0794339 
-0.0289287 0.00794543 0.0682673 -0.0289101 0.0080129 0.0633262 -0.0297674 0.00372845 0.0657853 
-0.0118975 -0.0275399 0.0434223 -0.0119034 -0.0275374 0.0384615 -0.00784369 -0.0289565 0.0409337 
-0.00782986 -0.0289602 0.0508577 -0.00782531 -0.0289614 0.0558168 -0.0118843 -0.0275457 0.0533426 
-0.00362106 -0.0297807 0.0434093 -0.00361468 -0.0297814 0.0483731 -0.00783728 -0.0289582 0.0458966 
0.03 -7.34788e-18 0.0287237 0.029686 0.0043293 0.0262152 0.0296875 0.00431884 0.0312237 
-0.0199619 0.0223947 0.0583496 -0.0199754 0.0223826 0.0534153 -0.0229363 0.0193371 0.0558869 
0.0251048 0.016424 0.0485116 0.0251119 0.0164132 0.0435417 0.0224993 0.0198439 0.0460269 
-0.00782402 -0.0289618 0.0607736 -0.00360826 -0.0297822 0.0632392 -0.00782288 -0.0289621 0.0657117 
-0.0166893 0.0249292 0.0753995 -0.0135939 0.0267433 0.0718973 -0.0166761 0.0249381 0.0705159 
0.0297263 -0.00404294 0.0411233 0.0297246 -0.00405578 0.0459327 0.0288848 -0.00810373 0.0435117 
-0.00974098 -0.0283745 0.0794339 -0.0120513 -0.027473 0.0767936 -0.00760666 -0.0290196 0.0754184 
0.0049563 -0.0295878 0.0433976 0.00496282 -0.0295867 0.0483656 0.000676864 -0.0299924 0.0458866 
-0.00362106 -0.0297807 0.0434093 0.000670816 -0.0299925 0.04092 0.000676864 -0.0299924 0.0458866 
-0.011967 -0.0275098 0.0729297 -0.0120513 -0.027473 0.0767936 -0.0161629 -0.0252737 0.0754553 
0.0225248 0.019815 0.02618 0.0225381 0.0197998 0.0311567 0.025144 0.0163639 0.0286757 
-0.0297625 0.00376772 0.0558731 -0.02891 0.00801312 0.0583693 -0.0289216 0.0079713 0.0533978 
-0.00975576 0.0283694 0.0794457 -0.00878928 0.0286836 0.0755334 -0.0130304 0.0270224 0.0754793 
-0.0118843 -0.0275457 0.0533426 -0.00782531 -0.0289614 0.0558168 -0.0118812 -0.027547 0.058301 
-0.0128847 0.0270922 0.0534316 -0.00886422 0.0286605 0.0509671 -0.0128532 0.0271071 0.0484793 
-0.0222928 -0.0200756 0.0409611 -0.0191967 -0.023054 0.0434336 -0.0222885 -0.0200804 0.0459178 
0.00974098 0.0283745 0.0794339 0.0122932 0.0273656 0.0768132 0.00753375 0.0290386 0.0757509 
-0.0157115 -0.0255567 0.0409489 -0.0157056 -0.0255604 0.0459081 -0.0191967 -0.023054 0.0434336 
-0.0118975 -0.0275399 0.0434223 -0.00784369 -0.0289565 0.0409337 -0.00783728 -0.0289582 0.0458966 
0.00916909 -0.0285644 0.0657282 0.0131937 -0.026943 0.0682097 0.00914953 -0.0285707 0.0706822 
-0.0222928 -0.0200756 0.0409611 -0.019202 -0.0230496 0.0384765 -0.0191967 -0.023054 0.0434336 
-0.0229363 0.0193371 0.0558869 -0.0229573 0.0193123 0.0509337 -0.0254683 0.0158546 0.0534164 
0.0201701 -0.0222073 0.0383867 0.0230725 -0.0191745 0.035904 0.0230922 -0.0191507 0.0409159 
0.00914121 -0.0285734 0.0458756 0.0131278 -0.0269752 0.0433813 0.0131386 -0.02697 0.048353 
0.0229611 -0.0193077 0.0753289 0.0202524 -0.0221324 0.0767016 0.0202787 -0.0221082 0.0727342 
-0.0130304 0.0270224 0.0754793 -0.0135939 0.0267433 0.0718973 -0.0166893 0.0249292 0.0753995 
0.0250985 0.0164336 0.0534907 0.0251048 0.016424 0.0485116 0.02249 0.0198545 0.0509959 
0.0159356 0.0254176 0.0559603 0.0159489 0.0254093 0.0509967 0.0121479 0.0274304 0.053474 
0.0202787 -0.0221082 0.0727342 0.0202524 -0.0221324 0.0767016 0.0171917 -0.0245855 0.075916 
-0.000397187 0.0299974 0.0559385 0.00389662 0.0297459 0.0534653 -0.000384935 0.0299975 0.0509786 
0.0297128 -0.00414138 0.0312188 0.0288533 -0.0082149 0.0286785 0.0297135 -0.00413601 0.0262524 
-0.0199754 0.0223826 0.0534153 -0.0229573 0.0193123 0.0509337 -0.0229363 0.0193371 0.0558869 
-0.00886422 0.0286605 0.0509671 -0.00892097 0.0286429 0.0559271 -0.00467171 0.029634 0.0534524 
0.0126602 -0.0271978 0.0780262 0.00891898 -0.0286435 0.0799066 0.00909105 -0.0285894 0.0756023 
0.00494989 -0.0295888 0.0384302 0.00913312 -0.028576 0.0409069 0.0049563 -0.0295878 0.0433976 
-0.00494722 0.0295893 0.0732561 -0.000571711 0.0299946 0.0751555 -0.000527162 0.0299954 0.0707463 
0.0121797 0.0274163 0.0385932 0.0159713 0.0253952 0.0410817 0.015983 0.0253879 0.0361159 
-0.0222885 -0.0200804 0.0459178 -0.019191 -0.0230587 0.0483921 -0.0222847 -0.0200847 0.0508768 
-0.00361468 -0.0297814 0.0483731 -0.00782986 -0.0289602 0.0508577 -0.00783728 -0.0289582 0.0458966 
0.00380237 0.0297581 0.0633956 0.00807342 0.0288932 0.0609148 0.00388685 0.0297471 0.0584267 
0.0158933 0.0254441 0.0609193 0.0193237 0.0229476 0.0634238 0.0193961 0.0228865 0.0584513 
-0.0035739 -0.0297864 0.0727919 -0.00297491 -0.0298521 0.076544 -0.00760666 -0.0290196 0.0754184 
0.00391625 0.0297433 0.0435441 0.00390766 0.0297444 0.0485047 0.00812153 0.0288798 0.0460286 
-0.0157115 -0.0255567 0.0409489 -0.0119034 -0.0275374 0.0384615 -0.0118975 -0.0275399 0.0434223 
-0.0118812 -0.027547 0.058301 -0.00782531 -0.0289614 0.0558168 -0.00782402 -0.0289618 0.0607736 
-0.00360826 -0.0297822 0.0632392 0.000687804 -0.0299921 0.0607677 0.000685382 -0.0299922 0.0657266 
0.0168315 -0.0248334 0.0408832 0.0168089 -0.0248488 0.035916 0.0201701 -0.0222073 0.0383867 
0.0184264 -0.0236742 0.0794339 0.0155927 -0.0256294 0.0803053 0.0171917 -0.0245855 0.075916 
-0.00362106 -0.0297807 0.0434093 0.000676864 -0.0299924 0.0458866 -0.00361468 -0.0297814 0.0483731 
-0.00760666 -0.0290196 0.0754184 -0.0120513 -0.027473 0.0767936 -0.011967 -0.0275098 0.0729297 
-0.00782402 -0.0289618 0.0607736 -0.00360589 -0.0297825 0.0582903 -0.00360826 -0.0297822 0.0632392 
0.00912428 -0.0285788 0.0359395 0.0131178 -0.0269801 0.0384123 0.00913312 -0.028576 0.0409069 
0.0121708 0.0274203 0.0435559 0.0159713 0.0253952 0.0410817 0.0121797 0.0274163 0.0385932 
-0.0222811 -0.0200886 0.070583 -0.0223143 -0.0200517 0.0750969 -0.0249343 -0.0166817 0.0732026 
0.029686 0.0043293 0.0262152 0.0287571 0.00854579 0.0286915 0.0296875 0.00431884 0.0312237 
0.0049563 -0.0295878 0.0433976 0.00914121 -0.0285734 0.0458756 0.00496282 -0.0295867 0.0483656 
0.0288918 -0.00807861 0.0684217 0.0289065 -0.00802601 0.0735914 0.0274802 -0.0120349 0.0708763 
0.000670816 -0.0299925 0.04092 0.0049563 -0.0295878 0.0433976 0.000676864 -0.0299924 0.0458866 
-0.00784369 -0.0289565 0.0409337 -0.00362106 -0.0297807 0.0434093 -0.00783728 -0.0289582 0.0458966 
-0.000375922 0.0299976 0.0460179 0.00390766 0.0297444 0.0485047 0.00391625 0.0297433 0.0435441 
-0.0157115 -0.0255567 0.0409489 -0.0118975 -0.0275399 0.0434223 -0.0157056 -0.0255604 0.0459081 
-0.0295761 -0.00502534 0.0757324 -0.0283743 -0.00974148 0.0767631 -0.029082 -0.00736456 0.0794339 
0.0230725 -0.0191745 0.035904 0.0255076 -0.0157913 0.0384451 0.0230922 -0.0191507 0.0409159 
0.00914121 -0.0285734 0.0458756 0.0131386 -0.02697 0.048353 0.00914643 -0.0285717 0.0508443 
0.00799583 0.0289148 0.0658532 0.0120857 0.0274579 0.0633714 0.00807342 0.0288932 0.0609148 
0.0120857 0.0274579 0.0633714 0.012136 0.0274357 0.0584357 0.00807342 0.0288932 0.0609148 
0.00912428 -0.0285788 0.0359395 0.00913312 -0.028576 0.0409069 0.00494989 -0.0295888 0.0384302 
0.0131937 -0.026943 0.0682097 0.0169668 -0.0247412 0.0706842 0.0131642 -0.0269575 0.0731639 
0.0288935 -0.00807246 0.0633022 0.0288918 -0.00807861 0.0684217 0.0275099 -0.0119669 0.0657922 
-0.0118975 -0.0275399 0.0434223 -0.00783728 -0.0289582 0.0458966 -0.0118906 -0.027543 0.048383 
0.000670816 -0.0299925 0.04092 -0.00362572 -0.0297801 0.0384441 0.000666027 -0.0299926 0.0359545 
0.00497803 -0.0295841 0.0632474 0.00916909 -0.0285644 0.0657282 0.00496394 -0.0295865 0.0682157 
0.00388685 0.0297471 0.0584267 0.00389662 0.0297459 0.0534653 -0.000397187 0.0299974 0.0559385 
0.000685382 -0.0299922 0.0657266 0.00497803 -0.0295841 0.0632474 0.00496394 -0.0295865 0.0682157 
0.000670816 -0.0299925 0.04092 0.000666027 -0.0299926 0.0359545 0.00494989 -0.0295888 0.0384302 
0.0275099 -0.0119669 0.0657922 0.0288918 -0.00807861 0.0684217 0.0274802 -0.0120349 0.0708763 
0.025602 -0.0156377 0.048352 0.0256063 -0.0156306 0.0533089 0.0231554 -0.0190743 0.0508333 
-0.019202 -0.0230496 0.0384765 -0.0157115 -0.0255567 0.0409489 -0.0191967 -0.023054 0.0434336 
0.023124 -0.0191124 0.0458748 0.0231554 -0.0190743 0.0508333 0.0202026 -0.0221778 0.0483515 
-0.00461328 0.0296432 0.0286644 -0.000349677 0.029998 0.0311429 -0.000355799 0.0299979 0.0261953 
0.0274802 -0.0120349 0.0708763 0.0289065 -0.00802601 0.0735914 0.0274476 -0.012109 0.0759949 
-0.00783728 -0.0289582 0.0458966 -0.00782986 -0.0289602 0.0508577 -0.0118906 -0.027543 0.048383 
0.0049563 -0.0295878 0.0433976 0.00913312 -0.028576 0.0409069 0.00914121 -0.0285734 0.0458756 
0.0222925 0.0200759 0.0710442 0.0250431 0.0165179 0.0684892 0.0223889 0.0199684 0.0659566 
-0.0128532 0.0271071 0.0484793 -0.00886422 0.0286605 0.0509671 -0.00884205 0.0286674 0.046006 
-0.00784369 -0.0289565 0.0409337 -0.0119034 -0.0275374 0.0384615 -0.00784773 -0.0289554 0.03597 
0.0275478 -0.0118794 0.0607899 0.0288935 -0.00807246 0.0633022 0.0275099 -0.0119669 0.0657922 
0.0201813 -0.0221972 0.0433779 0.0230922 -0.0191507 0.0409159 0.023124 -0.0191124 0.0458748 
-0.0289287 0.00794543 0.0682673 -0.0273778 0.0122661 0.0659382 -0.0289101 0.0080129 0.0633262 
0.0288848 -0.0081035 0.0583007 0.0288935 -0.00807246 0.0633022 0.0275478 -0.0118794 0.0607899 
0.0202331 -0.02215 0.0583143 0.016887 -0.0247957 0.0607663 0.0168646 -0.024811 0.0558068 
0.0168416 -0.0248266 0.0458615 0.0201813 -0.0221972 0.0433779 0.0202026 -0.0221778 0.0483515 
-0.00784369 -0.0289565 0.0409337 -0.00784773 -0.0289554 0.03597 -0.00362572 -0.0297801 0.0384441 
0.0255794 -0.0156746 0.0682574 0.0274802 -0.0120349 0.0708763 0.0255067 -0.0157926 0.0733532 
0.0131386 -0.02697 0.048353 0.0168413 -0.0248268 0.0508361 0.0131407 -0.0269689 0.0533221 
-0.0157166 -0.0255536 0.0359894 -0.0119034 -0.0275374 0.0384615 -0.0157115 -0.0255567 0.0409489 
0.0131694 -0.0269549 0.0632437 0.0169091 -0.0247807 0.0657154 0.0131937 -0.026943 0.0682097 
0.00389662 0.0297459 0.0534653 0.00390766 0.0297444 0.0485047 -0.000384935 0.0299975 0.0509786 
0.0275408 -0.0118956 0.0557923 0.0288848 -0.0081035 0.0583007 0.0275478 -0.0118794 0.0607899 
0.0255076 -0.0157913 0.0384451 0.0274246 -0.012161 0.0358907 0.0274671 -0.0120648 0.0410835 
0.0250886 0.0164488 0.0584673 0.0271813 0.0126955 0.0609882 0.0271931 0.0126703 0.0559907 
0.025602 -0.0156377 0.048352 0.0275166 -0.0119515 0.0459006 0.0275499 -0.0118745 0.0507714 
0.0288929 -0.00807454 0.0533185 0.0288848 -0.0081035 0.0583007 0.0275408 -0.0118956 0.0557923 
-0.019202 -0.0230496 0.0384765 -0.0157166 -0.0255536 0.0359894 -0.0157115 -0.0255567 0.0409489 
0.0256275 -0.0155959 0.0583046 0.0275478 -0.0118794 0.0607899 0.0256067 -0.01563 0.0632643 
-0.0285673 -0.00916029 0.0727966 -0.0283743 -0.00974148 0.0767631 -0.0295761 -0.00502534 0.0757324 
0.00916909 -0.0285644 0.0657282 0.0131694 -0.0269549 0.0632437 0.0131937 -0.026943 0.0682097 
-0.0157056 -0.0255604 0.0459081 -0.019191 -0.0230587 0.0483921 -0.0191967 -0.023054 0.0434336 
-0.00467171 0.029634 0.0534524 -0.00892097 0.0286429 0.0559271 -0.00476148 0.0296197 0.0584253 
-0.0222928 -0.0200756 0.0409611 -0.0222976 -0.0200703 0.0360044 -0.019202 -0.0230496 0.0384765 
0.0119491 0.0275176 0.0682476 0.0158025 0.0255006 0.0658415 0.0120857 0.0274579 0.0633714 
0.0275499 -0.0118745 0.0507714 0.0288929 -0.00807454 0.0533185 0.0275408 -0.0118956 0.0557923 
0.03 -7.34788e-18 0.0287237 0.0297128 -0.00414138 0.0312188 0.0297135 -0.00413601 0.0262524 
-0.00782402 -0.0289618 0.0607736 -0.00782531 -0.0289614 0.0558168 -0.00360589 -0.0297825 0.0582903 
-0.0222928 -0.0200756 0.0409611 -0.0249314 -0.0166861 0.038489 -0.0222976 -0.0200703 0.0360044 
0.0275166 -0.0119515 0.0459006 0.0288848 -0.00810373 0.0435117 0.0288978 -0.00805702 0.0483828 
-0.0164084 -0.025115 0.0837237 -0.0183217 -0.0237553 0.079455 -0.0142784 -0.0263842 0.0794339 
0.00247738 -0.0298975 0.0837237 -0.000261222 -0.0299989 0.0799193 0.00474583 -0.0296222 0.0794466 
0.0120509 0.0274732 0.0837237 0.0142784 0.0263842 0.0798948 0.00974098 0.0283745 0.0794339 
0.0184264 0.0236742 0.0794339 0.0142784 0.0263842 0.0798948 0.0164084 0.025115 0.0837237 
0.00474583 -0.0296222 0.0794466 0.00891898 -0.0286435 0.0799066 0.00736456 -0.029082 0.0837237 
-0.00585665 -0.0294228 0.0794869 -0.000261222 -0.0299989 0.0799193 -0.00247738 -0.0298975 0.0837237 
-0.0289239 0.00796289 0.0794249 -0.0298975 0.00247738 0.0799955 -0.0295908 0.00493784 0.0837237 
0.025115 -0.0164084 0.0794339 0.0274732 -0.0120509 0.0800925 0.0263842 -0.0142784 0.0837237 
-0.03 -6.29394e-17 0.0837237 -0.0298975 0.00247738 0.0799955 -0.0298387 -0.00310698 0.0794715 
0.0289012 0.00804489 0.0794704 0.0274732 0.0120509 0.0801614 0.0283745 0.00974098 0.0837237 
0.0295908 0.00493784 0.0837237 0.0297817 0.00361278 0.08009 0.0289012 0.00804489 0.0794704 
0.0263842 0.0142784 0.0837237 0.0274732 0.0120509 0.0801614 0.025115 0.0164084 0.0794339 
0.0164084 -0.025115 0.0837237 0.0155927 -0.0256294 0.0803053 0.0184264 -0.0236742 0.0794339 
0.0203184 0.0220717 0.0837237 0.0220717 0.0203184 0.0804875 0.0184264 0.0236742 0.0794339 
0.0289189 -0.00798104 0.0797417 0.0297846 -0.00358885 0.0801139 0.0295908 -0.00493784 0.0837237 
0.0283745 -0.00974098 0.0837237 0.0274732 -0.0120509 0.0800925 0.0289189 -0.00798104 0.0797417 
0.025115 0.0164084 0.0794339 0.0220717 0.0203184 0.0804875 0.0236742 0.0184264 0.0837237 
-0.00247738 0.0298975 0.0837237 -0.00492678 0.0295927 0.079341 -0.00736456 0.029082 0.0837237 
-0.0263842 -0.0142784 0.0837237 -0.0249996 -0.0165837 0.0792552 -0.0236742 -0.0184264 0.0837237 
0.0295908 0.00493784 0.0837237 0.0289012 0.00804489 0.0794704 0.0283745 0.00974098 0.0837237 
-0.0120509 -0.0274732 0.0837237 -0.00974098 -0.0283745 0.0794339 -0.00736456 -0.029082 0.0837237 
-0.00736456 -0.029082 0.0837237 -0.00585665 -0.0294228 0.0794869 -0.00247738 -0.0298975 0.0837237 
-0.0295908 -0.00493784 0.0837237 -0.029082 -0.00736456 0.0794339 -0.0283745 -0.00974098 0.0837237 
-0.0203184 -0.0220717 0.0837237 -0.0183217 -0.0237553 0.079455 -0.0164084 -0.025115 0.0837237 
0.00247738 0.0298975 0.0837237 4.08595e-05 0.03 0.0794623 -0.00247738 0.0298975 0.0837237 
0.0203184 -0.0220717 0.0837237 0.0220504 -0.0203416 0.0794635 0.0236742 -0.0184264 0.0837237 
0.0164084 -0.025115 0.0837237 0.0184264 -0.0236742 0.0794339 0.0203184 -0.0220717 0.0837237 
-0.0283745 -0.00974098 0.0837237 -0.0274732 -0.0120509 0.0794339 -0.0263842 -0.0142784 0.0837237 
0.00736456 0.029082 0.0837237 0.00499562 0.0295811 0.079466 0.00247738 0.0298975 0.0837237 
-0.0164084 -0.025115 0.0837237 -0.0142784 -0.0263842 0.0794339 -0.0120509 -0.0274732 0.0837237 
-0.0236742 -0.0184264 0.0837237 -0.0219258 -0.0204758 0.0794261 -0.0203184 -0.0220717 0.0837237 
-0.0283745 0.00974098 0.0837237 -0.0289239 0.00796289 0.0794249 -0.0295908 0.00493784 0.0837237 
0.00247738 -0.0298975 0.0837237 0.00474583 -0.0296222 0.0794466 0.00736456 -0.029082 0.0837237 
0.0263842 0.0142784 0.0837237 0.025115 0.0164084 0.0794339 0.0236742 0.0184264 0.0837237 
-0.00736456 0.029082 0.0837237 -0.00975576 0.0283694 0.0794457 -0.0120509 0.0274732 0.0837237 
-0.03 -6.29394e-17 0.0837237 -0.0298387 -0.00310698 0.0794715 -0.0295908 -0.00493784 0.0837237 
0.0203184 0.0220717 0.0837237 0.0184264 0.0236742 0.0794339 0.0164084 0.025115 0.0837237 
0.0120509 0.0274732 0.0837237 0.00974098 0.0283745 0.0794339 0.00736456 0.029082 0.0837237 
0.0236742 -0.0184264 0.0837237 0.025115 -0.0164084 0.0794339 0.0263842 -0.0142784 0.0837237 
-0.0263842 0.0142784 0.0837237 -0.0273396 0.0123509 0.0794474 -0.0283745 0.00974098 0.0837237 
-0.0236742 0.0184264 0.0837237 -0.025094 0.0164405 0.0794381 -0.0263842 0.0142784 0.0837237 
-0.0203184 0.0220717 0.0837237 -0.0220614 0.0203296 0.0794605 -0.0236742 0.0184264 0.0837237 
-0.0120509 0.0274732 0.0837237 -0.0143363 0.0263528 0.0794689 -0.0164084 0.025115 0.0837237 
-0.0164084 0.025115 0.0837237 -0.0184461 0.0236589 0.0794694 -0.0203184 0.0220717 0.0837237 
0.0283745 -0.00974098 0.0837237 0.0289189 -0.00798104 0.0797417 0.0295908 -0.00493784 0.0837237 
-0.0295908 0.00493784 0.0837237 -0.0298975 0.00247738 0.0799955 -0.03 -6.29394e-17 0.0837237 
-0.00247738 -0.0298975 0.0837237 -0.000261222 -0.0299989 0.0799193 0.00247738 -0.0298975 0.0837237 
0.00736456 -0.029082 0.0837237 0.00891898 -0.0286435 0.0799066 0.0120509 -0.0274732 0.0837237 
0.0164084 0.025115 0.0837237 0.0142784 0.0263842 0.0798948 0.0120509 0.0274732 0.0837237 
0.0283745 0.00974098 0.0837237 0.0274732 0.0120509 0.0801614 0.0263842 0.0142784 0.0837237 
0.03 -7.34788e-18 0.0837237 0.0297817 0.00361278 0.08009 0.0295908 0.00493784 0.0837237 
0.0263842 -0.0142784 0.0837237 0.0274732 -0.0120509 0.0800925 0.0283745 -0.00974098 0.0837237 
0.0295908 -0.00493784 0.0837237 0.0297846 -0.00358885 0.0801139 0.03 -7.34788e-18 0.0837237 
0.0120509 -0.0274732 0.0837237 0.0155927 -0.0256294 0.0803053 0.0164084 -0.025115 0.0837237 
0.0236742 0.0184264 0.0837237 0.0220717 0.0203184 0.0804875 0.0203184 0.0220717 0.0837237 
-0.0295908 0.00493784 0.0837237 -0.0269306 0.00213112 0.0837237 -0.0247613 0.00595337 0.0837237 
-0.0159919 -0.0205249 0.0837237 -0.0123473 -0.0194528 0.0837237 -0.0152457 -0.0157881 0.0837237 
0.0283745 0.00974098 0.0837237 0.0262923 0.00664646 0.0837237 0.0295908 0.00493784 0.0837237 
-0.0263842 0.0142784 0.0837237 -0.024489 0.0105266 0.0837237 -0.0220227 0.0136092 0.0837237 
-0.00640818 0.0176548 0.0837237 -0.0110301 0.0188699 0.0837237 -0.00983278 0.0143111 0.0837237 
-0.0220227 0.0136092 0.0837237 -0.024489 0.0105266 0.0837237 -0.0209022 0.00905108 0.0837237 
-0.0122417 -0.0232057 0.0837237 -0.00884013 -0.0252871 0.0837237 -0.00809412 -0.0211818 0.0837237 
0.0111119 -0.0129281 0.0837237 0.015062 -0.00917333 0.0837237 0.00979689 -0.0081546 0.0837237 
-0.0252385 -0.00663486 0.0837237 -0.026125 -0.00201284 0.0837237 -0.0295908 -0.00493784 0.0837237 
-0.000595274 -0.0186108 0.0837237 -0.0036895 -0.0211171 0.0837237 -9.41575e-05 -0.0230183 0.0837237 
0.0164084 0.025115 0.0837237 0.0122843 0.0228125 0.0837237 0.0157653 0.0203057 0.0837237 
0.00630495 -0.0117307 0.0837237 0.00979689 -0.0081546 0.0837237 0.00495016 -0.0070021 0.0837237 
-0.0295908 -0.00493784 0.0837237 -0.026125 -0.00201284 0.0837237 -0.03 -6.29394e-17 0.0837237 
0.0295908 -0.00493784 0.0837237 0.0262759 -0.00240162 0.0837237 0.0248596 -0.00634908 0.0837237 
-0.00480389 0.0254027 0.0837237 -0.00875739 0.0254178 0.0837237 -0.0076627 0.0219387 0.0837237 
0.0139478 0.00826628 0.0837237 0.0178597 0.0123767 0.0837237 0.0124538 0.0129968 0.0837237 
-0.0210811 -0.013826 0.0837237 -0.0244738 -0.0106783 0.0837237 -0.0263842 -0.0142784 0.0837237 
0.0200699 -0.00761178 0.0837237 0.023376 -0.0105655 0.0837237 0.0248596 -0.00634908 0.0837237 
0.00170261 0.0199253 0.0837237 -0.00171542 0.0165759 0.0837237 0.00305038 0.0154113 0.0837237 
-0.0176812 0.0123146 0.0837237 -0.0209022 0.00905108 0.0837237 -0.0165367 0.00759335 0.0837237 
0.0236742 -0.0184264 0.0837237 0.0193677 -0.0178292 0.0837237 0.0203184 -0.0220717 0.0837237 
0.00247738 0.0298975 0.0837237 0.00475217 0.0262618 0.0837237 0.00736456 0.029082 0.0837237 
0.00649523 0.0189422 0.0837237 0.0049706 0.0224562 0.0837237 0.00170261 0.0199253 0.0837237 
-0.0159919 -0.0205249 0.0837237 -0.0192711 -0.0181234 0.0837237 -0.0203184 -0.0220717 0.0837237 
-0.0175293 -0.00534917 0.0837237 -0.0210329 -0.00857697 0.0837237 -0.0165351 -0.0104289 0.0837237 
0.0228419 0.00568166 0.0837237 0.0262923 0.00664646 0.0837237 0.0233864 0.0102056 0.0837237 
0.00736456 0.029082 0.0837237 0.00475217 0.0262618 0.0837237 0.00844368 0.024816 0.0837237 
0.00649523 0.0189422 0.0837237 0.00935195 0.0210524 0.0837237 0.0049706 0.0224562 0.0837237 
-0.0131961 0.0109457 0.0837237 -0.0143728 0.0156392 0.0837237 -0.0176812 0.0123146 0.0837237 
0.02139 -0.0141683 0.0837237 0.0184672 -0.0112631 0.0837237 0.0159555 -0.0144888 0.0837237 
-0.0119049 0.0231923 0.0837237 -0.00875739 0.0254178 0.0837237 -0.0120509 0.0274732 0.0837237 
-0.0203184 0.0220717 0.0837237 -0.0155033 0.0203259 0.0837237 -0.0164084 0.025115 0.0837237 
-0.0198826 0.00432235 0.0837237 -0.0209022 0.00905108 0.0837237 -0.0247613 0.00595337 0.0837237 
-0.00306504 0.0210841 0.0837237 -0.00480389 0.0254027 0.0837237 -0.0076627 0.0219387 0.0837237 
0.0152921 0.00356892 0.0837237 0.0139478 0.00826628 0.0837237 0.0104845 0.00476988 0.0837237 
-0.0230511 0.00103609 0.0837237 -0.026125 -0.00201284 0.0837237 -0.0219391 -0.00367156 0.0837237 
-0.0283745 -0.00974098 0.0837237 -0.0244738 -0.0106783 0.0837237 -0.0252385 -0.00663486 0.0837237 
0.00914902 0.00951011 0.0837237 0.0139478 0.00826628 0.0837237 0.0124538 0.0129968 0.0837237 
0.0113385 0.0181284 0.0837237 0.00935195 0.0210524 0.0837237 0.00649523 0.0189422 0.0837237 
0.0164084 0.025115 0.0837237 0.0157653 0.0203057 0.0837237 0.0203184 0.0220717 0.0837237 
-0.00987953 -0.0164218 0.0837237 -0.0123473 -0.0194528 0.0837237 -0.00809412 -0.0211818 0.0837237 
0.0120396 -0.017547 0.0837237 0.00891473 -0.0202971 0.0837237 0.0123194 -0.0226331 0.0837237 
0.0159555 -0.0144888 0.0837237 0.0184672 -0.0112631 0.0837237 0.015062 -0.00917333 0.0837237 
-0.0263842 -0.0142784 0.0837237 -0.0244738 -0.0106783 0.0837237 -0.0283745 -0.00974098 0.0837237 
-0.00247738 0.0298975 0.0837237 -0.00480389 0.0254027 0.0837237 0.00050668 0.0249923 0.0837237 
0.00450018 -0.0206173 0.0837237 0.00891473 -0.0202971 0.0837237 0.00756968 -0.0163985 0.0837237 
-0.0230511 0.00103609 0.0837237 -0.0219391 -0.00367156 0.0837237 -0.0186531 -0.000485601 0.0837237 
0.0122843 0.0228125 0.0837237 0.00935195 0.0210524 0.0837237 0.0113385 0.0181284 0.0837237 
0.0178597 0.0123767 0.0837237 0.0151607 0.0162574 0.0837237 0.0124538 0.0129968 0.0837237 
0.0111119 -0.0129281 0.0837237 0.0159555 -0.0144888 0.0837237 0.015062 -0.00917333 0.0837237 
0.0120509 -0.0274732 0.0837237 0.0123194 -0.0226331 0.0837237 0.00814478 -0.0242894 0.0837237 
-0.0189852 0.0170671 0.0837237 -0.0155033 0.0203259 0.0837237 -0.0203184 0.0220717 0.0837237 
0.0203184 -0.0220717 0.0837237 0.0193677 -0.0178292 0.0837237 0.0157279 -0.0202072 0.0837237 
-0.0164084 -0.025115 0.0837237 -0.0122417 -0.0232057 0.0837237 -0.0159919 -0.0205249 0.0837237 
0.0203184 0.0220717 0.0837237 0.0157653 0.0203057 0.0837237 0.0190979 0.0173202 0.0837237 
-0.0122417 -0.0232057 0.0837237 -0.0123473 -0.0194528 0.0837237 -0.0159919 -0.0205249 0.0837237 
0.0049706 0.0224562 0.0837237 0.00935195 0.0210524 0.0837237 0.00844368 0.024816 0.0837237 
0.0111119 -0.0129281 0.0837237 0.00979689 -0.0081546 0.0837237 0.00630495 -0.0117307 0.0837237 
0.00371169 -0.0256228 0.0837237 -0.000122576 -0.0268323 0.0837237 0.00247738 -0.0298975 0.0837237 
-0.00736456 -0.029082 0.0837237 -0.00884013 -0.0252871 0.0837237 -0.0120509 -0.0274732 0.0837237 
-0.0120509 -0.0274732 0.0837237 -0.0122417 -0.0232057 0.0837237 -0.0164084 -0.025115 0.0837237 
0.00756968 -0.0163985 0.0837237 0.00891473 -0.0202971 0.0837237 0.0120396 -0.017547 0.0837237 
0.0233864 0.0102056 0.0837237 0.0262923 0.00664646 0.0837237 0.0283745 0.00974098 0.0837237 
0.0164569 -0.00110475 0.0837237 0.0170352 -0.00513945 0.0837237 0.0214704 -0.00283669 0.0837237 
0.0189144 0.00707811 0.0837237 0.0139478 0.00826628 0.0837237 0.0152921 0.00356892 0.0837237 
-0.00437754 -0.0252867 0.0837237 -0.00884013 -0.0252871 0.0837237 -0.00736456 -0.029082 0.0837237 
-0.0252385 -0.00663486 0.0837237 -0.0244738 -0.0106783 0.0837237 -0.0210329 -0.00857697 0.0837237 
-0.0175293 -0.00534917 0.0837237 -0.0219391 -0.00367156 0.0837237 -0.0210329 -0.00857697 0.0837237 
0.0283745 -0.00974098 0.0837237 0.023376 -0.0105655 0.0837237 0.0263842 -0.0142784 0.0837237 
-9.41575e-05 -0.0230183 0.0837237 -0.000122576 -0.0268323 0.0837237 0.00371169 -0.0256228 0.0837237 
-0.00809412 -0.0211818 0.0837237 -0.0036895 -0.0211171 0.0837237 -0.00528641 -0.0174878 0.0837237 
-0.0152457 -0.0157881 0.0837237 -0.0123473 -0.0194528 0.0837237 -0.00987953 -0.0164218 0.0837237 
-0.03 -6.29394e-17 0.0837237 -0.0269306 0.00213112 0.0837237 -0.0295908 0.00493784 0.0837237 
-0.0236742 -0.0184264 0.0837237 -0.0192711 -0.0181234 0.0837237 -0.0210811 -0.013826 0.0837237 
-0.0152457 -0.0157881 0.0837237 -0.0192711 -0.0181234 0.0837237 -0.0159919 -0.0205249 0.0837237 
-0.00306504 0.0210841 0.0837237 -0.0076627 0.0219387 0.0837237 -0.00640818 0.0176548 0.0837237 
0.0201589 0.00236947 0.0837237 0.0228419 0.00568166 0.0837237 0.0189144 0.00707811 0.0837237 
0.0111119 -0.0129281 0.0837237 0.0120396 -0.017547 0.0837237 0.0159555 -0.0144888 0.0837237 
0.00170261 0.0199253 0.0837237 -0.00306504 0.0210841 0.0837237 -0.00171542 0.0165759 0.0837237 
0.0123194 -0.0226331 0.0837237 0.00891473 -0.0202971 0.0837237 0.00814478 -0.0242894 0.0837237 
-0.0219391 -0.00367156 0.0837237 -0.026125 -0.00201284 0.0837237 -0.0252385 -0.00663486 0.0837237 
0.015062 -0.00917333 0.0837237 0.0170352 -0.00513945 0.0837237 0.0129972 -0.0046275 0.0837237 
0.00495016 -0.0070021 0.0837237 0.00835543 -0.00346515 0.0837237 0.00358503 -0.00228145 0.0837237 
0.0120509 0.0274732 0.0837237 0.0122843 0.0228125 0.0837237 0.0164084 0.025115 0.0837237 
0.0157653 0.0203057 0.0837237 0.0151607 0.0162574 0.0837237 0.0190979 0.0173202 0.0837237 
0.00756968 -0.0163985 0.0837237 0.0120396 -0.017547 0.0837237 0.0111119 -0.0129281 0.0837237 
0.0262759 -0.00240162 0.0837237 0.0214704 -0.00283669 0.0837237 0.0248596 -0.00634908 0.0837237 
0.0295908 0.00493784 0.0837237 0.0262923 0.00664646 0.0837237 0.0254585 0.00211549 0.0837237 
0.00050668 0.0249923 0.0837237 -0.00480389 0.0254027 0.0837237 -0.00306504 0.0210841 0.0837237 
0.00050668 0.0249923 0.0837237 0.00475217 0.0262618 0.0837237 0.00247738 0.0298975 0.0837237 
0.00844368 0.024816 0.0837237 0.0122843 0.0228125 0.0837237 0.0120509 0.0274732 0.0837237 
-0.0189852 0.0170671 0.0837237 -0.0220227 0.0136092 0.0837237 -0.0176812 0.0123146 0.0837237 
0.0189144 0.00707811 0.0837237 0.0178597 0.0123767 0.0837237 0.0139478 0.00826628 0.0837237 
0.0263842 -0.0142784 0.0837237 0.023376 -0.0105655 0.0837237 0.02139 -0.0141683 0.0837237 
0.00702628 0.00124848 0.0837237 0.00835543 -0.00346515 0.0837237 0.0117816 4.48598e-05 0.0837237 
-0.0210329 -0.00857697 0.0837237 -0.0219391 -0.00367156 0.0837237 -0.0252385 -0.00663486 0.0837237 
0.0157279 -0.0202072 0.0837237 0.0123194 -0.0226331 0.0837237 0.0164084 -0.025115 0.0837237 
-0.0283745 0.00974098 0.0837237 -0.024489 0.0105266 0.0837237 -0.0263842 0.0142784 0.0837237 
-0.0247613 0.00595337 0.0837237 -0.024489 0.0105266 0.0837237 -0.0283745 0.00974098 0.0837237 
-0.00983278 0.0143111 0.0837237 -0.0110301 0.0188699 0.0837237 -0.0143728 0.0156392 0.0837237 
-0.00528641 -0.0174878 0.0837237 -0.0036895 -0.0211171 0.0837237 -0.000595274 -0.0186108 0.0837237 
0.0129972 -0.0046275 0.0837237 0.0170352 -0.00513945 0.0837237 0.0164569 -0.00110475 0.0837237 
0.03 -7.34788e-18 0.0837237 0.0262759 -0.00240162 0.0837237 0.0295908 -0.00493784 0.0837237 
0.0254585 0.00211549 0.0837237 0.0262759 -0.00240162 0.0837237 0.03 -7.34788e-18 0.0837237 
0.023376 -0.0105655 0.0837237 0.0184672 -0.0112631 0.0837237 0.02139 -0.0141683 0.0837237 
-0.00736456 0.029082 0.0837237 -0.00875739 0.0254178 0.0837237 -0.00480389 0.0254027 0.0837237 
-0.00437754 -0.0252867 0.0837237 -0.000122576 -0.0268323 0.0837237 -9.41575e-05 -0.0230183 0.0837237 
0.02139 -0.0141683 0.0837237 0.0193677 -0.0178292 0.0837237 0.0236742 -0.0184264 0.0837237 
-0.0155033 0.0203259 0.0837237 -0.0110301 0.0188699 0.0837237 -0.0119049 0.0231923 0.0837237 
-0.0120509 -0.0274732 0.0837237 -0.00884013 -0.0252871 0.0837237 -0.0122417 -0.0232057 0.0837237 
0.00358503 -0.00228145 0.0837237 0.00835543 -0.00346515 0.0837237 0.00702628 0.00124848 0.0837237 
-0.0210329 -0.00857697 0.0837237 -0.0244738 -0.0106783 0.0837237 -0.0210811 -0.013826 0.0837237 
0.0254585 0.00211549 0.0837237 0.0262923 0.00664646 0.0837237 0.0228419 0.00568166 0.0837237 
-0.0209022 0.00905108 0.0837237 -0.024489 0.0105266 0.0837237 -0.0247613 0.00595337 0.0837237 
-0.0186531 -0.000485601 0.0837237 -0.0219391 -0.00367156 0.0837237 -0.0175293 -0.00534917 0.0837237 
-0.00247738 -0.0298975 0.0837237 -0.000122576 -0.0268323 0.0837237 -0.00437754 -0.0252867 0.0837237 
0.0104845 0.00476988 0.0837237 0.0139478 0.00826628 0.0837237 0.00914902 0.00951011 0.0837237 
-0.0076627 0.0219387 0.0837237 -0.00875739 0.0254178 0.0837237 -0.0119049 0.0231923 0.0837237 
-0.0203184 -0.0220717 0.0837237 -0.0192711 -0.0181234 0.0837237 -0.0236742 -0.0184264 0.0837237 
0.0190979 0.0173202 0.0837237 0.0220564 0.0145128 0.0837237 0.0236742 0.0184264 0.0837237 
-9.41575e-05 -0.0230183 0.0837237 -0.0036895 -0.0211171 0.0837237 -0.00437754 -0.0252867 0.0837237 
0.0236742 0.0184264 0.0837237 0.0220564 0.0145128 0.0837237 0.0263842 0.0142784 0.0837237 
0.0214704 -0.00283669 0.0837237 0.0200699 -0.00761178 0.0837237 0.0248596 -0.00634908 0.0837237 
-0.0263842 0.0142784 0.0837237 -0.0220227 0.0136092 0.0837237 -0.0236742 0.0184264 0.0837237 
-0.00809412 -0.0211818 0.0837237 -0.0123473 -0.0194528 0.0837237 -0.0122417 -0.0232057 0.0837237 
0.0113385 0.0181284 0.0837237 0.0151607 0.0162574 0.0837237 0.0157653 0.0203057 0.0837237 
-0.00736456 0.029082 0.0837237 -0.00480389 0.0254027 0.0837237 -0.00247738 0.0298975 0.0837237 
-0.0236742 0.0184264 0.0837237 -0.0220227 0.0136092 0.0837237 -0.0189852 0.0170671 0.0837237 
0.0248596 -0.00634908 0.0837237 0.023376 -0.0105655 0.0837237 0.0283745 -0.00974098 0.0837237 
-0.0164084 0.025115 0.0837237 -0.0155033 0.0203259 0.0837237 -0.0119049 0.0231923 0.0837237 
0.00247738 -0.0298975 0.0837237 -0.000122576 -0.0268323 0.0837237 -0.00247738 -0.0298975 0.0837237 
0.00844368 0.024816 0.0837237 0.00935195 0.0210524 0.0837237 0.0122843 0.0228125 0.0837237 
0.0164084 -0.025115 0.0837237 0.0123194 -0.0226331 0.0837237 0.0120509 -0.0274732 0.0837237 
0.00736456 -0.029082 0.0837237 0.00371169 -0.0256228 0.0837237 0.00247738 -0.0298975 0.0837237 
-0.00171542 0.0165759 0.0837237 -0.00306504 0.0210841 0.0837237 -0.00640818 0.0176548 0.0837237 
-0.026125 -0.00201284 0.0837237 -0.0269306 0.00213112 0.0837237 -0.03 -6.29394e-17 0.0837237 
-0.0120509 0.0274732 0.0837237 -0.00875739 0.0254178 0.0837237 -0.00736456 0.029082 0.0837237 
0.00814478 -0.0242894 0.0837237 0.00371169 -0.0256228 0.0837237 0.00736456 -0.029082 0.0837237 
0.0214704 -0.00283669 0.0837237 0.0170352 -0.00513945 0.0837237 0.0200699 -0.00761178 0.0837237 
0.00475217 0.0262618 0.0837237 0.0049706 0.0224562 0.0837237 0.00844368 0.024816 0.0837237 
0.00979689 -0.0081546 0.0837237 0.015062 -0.00917333 0.0837237 0.0129972 -0.0046275 0.0837237 
-0.00983278 0.0143111 0.0837237 -0.0143728 0.0156392 0.0837237 -0.0131961 0.0109457 0.0837237 
0.0117816 4.48598e-05 0.0837237 0.00835543 -0.00346515 0.0837237 0.0129972 -0.0046275 0.0837237 
-0.0230511 0.00103609 0.0837237 -0.0269306 0.00213112 0.0837237 -0.026125 -0.00201284 0.0837237 
0.0263842 0.0142784 0.0837237 0.0220564 0.0145128 0.0837237 0.0233864 0.0102056 0.0837237 
0.0124538 0.0129968 0.0837237 0.0151607 0.0162574 0.0837237 0.0113385 0.0181284 0.0837237 
-0.0165367 0.00759335 0.0837237 -0.0209022 0.00905108 0.0837237 -0.0198826 0.00432235 0.0837237 
0.0254585 0.00211549 0.0837237 0.0228419 0.00568166 0.0837237 0.0201589 0.00236947 0.0837237 
0.00305038 0.0154113 0.0837237 -0.00171542 0.0165759 0.0837237 -0.000388486 0.0119076 0.0837237 
-0.0051264 0.0130917 0.0837237 -0.00171542 0.0165759 0.0837237 -0.00640818 0.0176548 0.0837237 
0.00305038 0.0154113 0.0837237 -0.000388486 0.0119076 0.0837237 0.00437898 0.0107297 0.0837237 
0.00437898 0.0107297 0.0837237 -0.000388486 0.0119076 0.0837237 0.000927363 0.00719508 0.0837237 
-0.000388486 0.0119076 0.0837237 -0.00171542 0.0165759 0.0837237 -0.0051264 0.0130917 0.0837237 
0.000927363 0.00719508 0.0837237 -0.000388486 0.0119076 0.0837237 -0.0038409 0.00840691 0.0837237 
-0.0038409 0.00840691 0.0837237 -0.000388486 0.0119076 0.0837237 -0.0051264 0.0130917 0.0837237 
0.00224885 0.00245636 0.0837237 0.000927363 0.00719508 0.0837237 -0.00253304 0.00367461 0.0837237 
0.00437898 0.0107297 0.0837237 0.000927363 0.00719508 0.0837237 0.0057057 0.00598784 0.0837237 
0.0057057 0.00598784 0.0837237 0.000927363 0.00719508 0.0837237 0.00224885 0.00245636 0.0837237 
-0.00253304 0.00367461 0.0837237 0.000927363 0.00719508 0.0837237 -0.0038409 0.00840691 0.0837237 
0.0113385 0.0181284 0.0837237 0.00649523 0.0189422 0.0837237 0.0078412 0.0143448 0.0837237 
0.0078412 0.0143448 0.0837237 0.00649523 0.0189422 0.0837237 0.00305038 0.0154113 0.0837237 
0.00630495 -0.0117307 0.0837237 0.00495016 -0.0070021 0.0837237 0.00151338 -0.0105529 0.0837237 
0.00649523 0.0189422 0.0837237 0.00170261 0.0199253 0.0837237 0.00305038 0.0154113 0.0837237 
-0.00328617 -0.00934559 0.0837237 0.000148391 -0.0058171 0.0837237 -0.00464997 -0.00460866 0.0837237 
0.000148391 -0.0058171 0.0837237 0.00495016 -0.0070021 0.0837237 0.00358503 -0.00228145 0.0837237 
-0.00464997 -0.00460866 0.0837237 0.000148391 -0.0058171 0.0837237 -0.00120231 -0.0010755 0.0837237 
0.00151338 -0.0105529 0.0837237 0.000148391 -0.0058171 0.0837237 -0.00328617 -0.00934559 0.0837237 
-0.00120231 -0.0010755 0.0837237 0.000148391 -0.0058171 0.0837237 0.00358503 -0.00228145 0.0837237 
0.00151338 -0.0105529 0.0837237 0.00495016 -0.0070021 0.0837237 0.000148391 -0.0058171 0.0837237 
-0.0116124 -0.0117373 0.0837237 -0.00812738 -0.00816729 0.0837237 -0.0129013 -0.00692497 0.0837237 
-0.0141047 -0.0019928 0.0837237 -0.00943154 -0.00337269 0.0837237 -0.0107428 0.00140721 0.0837237 
-0.00855295 0.00964356 0.0837237 -0.00983278 0.0143111 0.0837237 -0.0131961 0.0109457 0.0837237 
-0.0051264 0.0130917 0.0837237 -0.00983278 0.0143111 0.0837237 -0.00855295 0.00964356 0.0837237 
-0.0051264 0.0130917 0.0837237 -0.00640818 0.0176548 0.0837237 -0.00983278 0.0143111 0.0837237 
-0.00943154 -0.00337269 0.0837237 -0.00812738 -0.00816729 0.0837237 -0.00464997 -0.00460866 0.0837237 
-0.00668676 -0.0128729 0.0837237 -0.00812738 -0.00816729 0.0837237 -0.0116124 -0.0117373 0.0837237 
-0.0107428 0.00140721 0.0837237 -0.00943154 -0.00337269 0.0837237 -0.00598711 0.000149091 0.0837237 
-0.0129013 -0.00692497 0.0837237 -0.00943154 -0.00337269 0.0837237 -0.0141047 -0.0019928 0.0837237 
-0.00598711 0.000149091 0.0837237 -0.00943154 -0.00337269 0.0837237 -0.00464997 -0.00460866 0.0837237 
-0.0120054 0.00619111 0.0837237 -0.00855295 0.00964356 0.0837237 -0.0131961 0.0109457 0.0837237 
0.00151338 -0.0105529 0.0837237 -0.00328617 -0.00934559 0.0837237 -0.00190874 -0.0140446 0.0837237 
-0.0038409 0.00840691 0.0837237 -0.0051264 0.0130917 0.0837237 -0.00855295 0.00964356 0.0837237 
-0.0072933 0.0049091 0.0837237 -0.00855295 0.00964356 0.0837237 -0.0120054 0.00619111 0.0837237 
-0.0038409 0.00840691 0.0837237 -0.00855295 0.00964356 0.0837237 -0.0072933 0.0049091 0.0837237 
-0.0129013 -0.00692497 0.0837237 -0.00812738 -0.00816729 0.0837237 -0.00943154 -0.00337269 0.0837237 
-0.00190874 -0.0140446 0.0837237 -0.00328617 -0.00934559 0.0837237 -0.00668676 -0.0128729 0.0837237 
-0.0153383 0.00282112 0.0837237 -0.0198826 0.00432235 0.0837237 -0.0186531 -0.000485601 0.0837237 
-0.0165367 0.00759335 0.0837237 -0.0198826 0.00432235 0.0837237 -0.0153383 0.00282112 0.0837237 
-0.0198826 0.00432235 0.0837237 -0.0230511 0.00103609 0.0837237 -0.0186531 -0.000485601 0.0837237 
-0.00464997 -0.00460866 0.0837237 -0.00812738 -0.00816729 0.0837237 -0.00328617 -0.00934559 0.0837237 
-0.000595274 -0.0186108 0.0837237 -9.41575e-05 -0.0230183 0.0837237 0.00450018 -0.0206173 0.0837237 
0.0263842 -0.0142784 0.0837237 0.02139 -0.0141683 0.0837237 0.0236742 -0.0184264 0.0837237 
-0.000595274 -0.0186108 0.0837237 0.00450018 -0.0206173 0.0837237 0.00289521 -0.0153307 0.0837237 
0.00736456 0.029082 0.0837237 0.00844368 0.024816 0.0837237 0.0120509 0.0274732 0.0837237 
-0.0236742 -0.0184264 0.0837237 -0.0210811 -0.013826 0.0837237 -0.0263842 -0.0142784 0.0837237 
-0.00528641 -0.0174878 0.0837237 -0.000595274 -0.0186108 0.0837237 -0.00190874 -0.0140446 0.0837237 
-0.00987953 -0.0164218 0.0837237 -0.00668676 -0.0128729 0.0837237 -0.0116124 -0.0117373 0.0837237 
-0.0236742 0.0184264 0.0837237 -0.0189852 0.0170671 0.0837237 -0.0203184 0.0220717 0.0837237 
0.00289521 -0.0153307 0.0837237 0.00450018 -0.0206173 0.0837237 0.00756968 -0.0163985 0.0837237 
0.00289521 -0.0153307 0.0837237 0.00151338 -0.0105529 0.0837237 -0.00190874 -0.0140446 0.0837237 
-0.000595274 -0.0186108 0.0837237 0.00289521 -0.0153307 0.0837237 -0.00190874 -0.0140446 0.0837237 
-0.00528641 -0.0174878 0.0837237 -0.00190874 -0.0140446 0.0837237 -0.00668676 -0.0128729 0.0837237 
-0.00987953 -0.0164218 0.0837237 -0.00528641 -0.0174878 0.0837237 -0.00668676 -0.0128729 0.0837237 
-0.0295908 0.00493784 0.0837237 -0.0247613 0.00595337 0.0837237 -0.0283745 0.00974098 0.0837237 
-0.00247738 0.0298975 0.0837237 0.00050668 0.0249923 0.0837237 0.00247738 0.0298975 0.0837237 
0.00289521 -0.0153307 0.0837237 0.00756968 -0.0163985 0.0837237 0.00630495 -0.0117307 0.0837237 
-0.00987953 -0.0164218 0.0837237 -0.00809412 -0.0211818 0.0837237 -0.00528641 -0.0174878 0.0837237 
0.00756968 -0.0163985 0.0837237 0.0111119 -0.0129281 0.0837237 0.00630495 -0.0117307 0.0837237 
0.00289521 -0.0153307 0.0837237 0.00630495 -0.0117307 0.0837237 0.00151338 -0.0105529 0.0837237 
0.0203184 0.0220717 0.0837237 0.0190979 0.0173202 0.0837237 0.0236742 0.0184264 0.0837237 
-0.00247738 -0.0298975 0.0837237 -0.00437754 -0.0252867 0.0837237 -0.00736456 -0.029082 0.0837237 
0.0203184 -0.0220717 0.0837237 0.0157279 -0.0202072 0.0837237 0.0164084 -0.025115 0.0837237 
0.0120509 -0.0274732 0.0837237 0.00814478 -0.0242894 0.0837237 0.00736456 -0.029082 0.0837237 
-0.0152457 -0.0157881 0.0837237 -0.00987953 -0.0164218 0.0837237 -0.0116124 -0.0117373 0.0837237 
0.0263842 0.0142784 0.0837237 0.0233864 0.0102056 0.0837237 0.0283745 0.00974098 0.0837237 
-0.0283745 -0.00974098 0.0837237 -0.0252385 -0.00663486 0.0837237 -0.0295908 -0.00493784 0.0837237 
-0.0164084 0.025115 0.0837237 -0.0119049 0.0231923 0.0837237 -0.0120509 0.0274732 0.0837237 
-0.0164084 -0.025115 0.0837237 -0.0159919 -0.0205249 0.0837237 -0.0203184 -0.0220717 0.0837237 
0.0295908 0.00493784 0.0837237 0.0254585 0.00211549 0.0837237 0.03 -7.34788e-18 0.0837237 
0.0295908 -0.00493784 0.0837237 0.0248596 -0.00634908 0.0837237 0.0283745 -0.00974098 0.0837237 
-0.0165351 -0.0104289 0.0837237 -0.0152457 -0.0157881 0.0837237 -0.0116124 -0.0117373 0.0837237 
-0.0165351 -0.0104289 0.0837237 -0.0116124 -0.0117373 0.0837237 -0.0129013 -0.00692497 0.0837237 
-0.0175293 -0.00534917 0.0837237 -0.0165351 -0.0104289 0.0837237 -0.0129013 -0.00692497 0.0837237 
-0.0175293 -0.00534917 0.0837237 -0.0129013 -0.00692497 0.0837237 -0.0141047 -0.0019928 0.0837237 
-0.0186531 -0.000485601 0.0837237 -0.0175293 -0.00534917 0.0837237 -0.0141047 -0.0019928 0.0837237 
-0.0131961 0.0109457 0.0837237 -0.0176812 0.0123146 0.0837237 -0.0165367 0.00759335 0.0837237 
-0.0153383 0.00282112 0.0837237 -0.0186531 -0.000485601 0.0837237 -0.0141047 -0.0019928 0.0837237 
-0.0120054 0.00619111 0.0837237 -0.0131961 0.0109457 0.0837237 -0.0165367 0.00759335 0.0837237 
-0.0120054 0.00619111 0.0837237 -0.0165367 0.00759335 0.0837237 -0.0153383 0.00282112 0.0837237 
-0.0153383 0.00282112 0.0837237 -0.0141047 -0.0019928 0.0837237 -0.0107428 0.00140721 0.0837237 
-0.0120054 0.00619111 0.0837237 -0.0153383 0.00282112 0.0837237 -0.0107428 0.00140721 0.0837237 
-0.0072933 0.0049091 0.0837237 -0.0120054 0.00619111 0.0837237 -0.0107428 0.00140721 0.0837237 
-0.00253304 0.00367461 0.0837237 -0.0038409 0.00840691 0.0837237 -0.0072933 0.0049091 0.0837237 
-0.0072933 0.0049091 0.0837237 -0.0107428 0.00140721 0.0837237 -0.00598711 0.000149091 0.0837237 
-0.00253304 0.00367461 0.0837237 -0.0072933 0.0049091 0.0837237 -0.00598711 0.000149091 0.0837237 
-0.00598711 0.000149091 0.0837237 -0.00464997 -0.00460866 0.0837237 -0.00120231 -0.0010755 0.0837237 
-0.00328617 -0.00934559 0.0837237 -0.00812738 -0.00816729 0.0837237 -0.00668676 -0.0128729 0.0837237 
-0.00253304 0.00367461 0.0837237 -0.00598711 0.000149091 0.0837237 -0.00120231 -0.0010755 0.0837237 
0.0124538 0.0129968 0.0837237 0.0113385 0.0181284 0.0837237 0.0078412 0.0143448 0.0837237 
0.00224885 0.00245636 0.0837237 -0.00253304 0.00367461 0.0837237 -0.00120231 -0.0010755 0.0837237 
0.0078412 0.0143448 0.0837237 0.00305038 0.0154113 0.0837237 0.00437898 0.0107297 0.0837237 
0.00914902 0.00951011 0.0837237 0.0124538 0.0129968 0.0837237 0.0078412 0.0143448 0.0837237 
0.00224885 0.00245636 0.0837237 -0.00120231 -0.0010755 0.0837237 0.00358503 -0.00228145 0.0837237 
0.00914902 0.00951011 0.0837237 0.0078412 0.0143448 0.0837237 0.00437898 0.0107297 0.0837237 
0.00914902 0.00951011 0.0837237 0.00437898 0.0107297 0.0837237 0.0057057 0.00598784 0.0837237 
0.00224885 0.00245636 0.0837237 0.00358503 -0.00228145 0.0837237 0.00702628 0.00124848 0.0837237 
0.00835543 -0.00346515 0.0837237 0.00979689 -0.0081546 0.0837237 0.0129972 -0.0046275 0.0837237 
0.0057057 0.00598784 0.0837237 0.00224885 0.00245636 0.0837237 0.00702628 0.00124848 0.0837237 
0.0104845 0.00476988 0.0837237 0.00914902 0.00951011 0.0837237 0.0057057 0.00598784 0.0837237 
0.0104845 0.00476988 0.0837237 0.0057057 0.00598784 0.0837237 0.00702628 0.00124848 0.0837237 
0.0104845 0.00476988 0.0837237 0.00702628 0.00124848 0.0837237 0.0117816 4.48598e-05 0.0837237 
-0.0143728 0.0156392 0.0837237 -0.0155033 0.0203259 0.0837237 -0.0189852 0.0170671 0.0837237 
0.0152921 0.00356892 0.0837237 0.0104845 0.00476988 0.0837237 0.0117816 4.48598e-05 0.0837237 
0.0117816 4.48598e-05 0.0837237 0.0129972 -0.0046275 0.0837237 0.0164569 -0.00110475 0.0837237 
0.00495016 -0.0070021 0.0837237 0.00979689 -0.0081546 0.0837237 0.00835543 -0.00346515 0.0837237 
-0.0176812 0.0123146 0.0837237 -0.0143728 0.0156392 0.0837237 -0.0189852 0.0170671 0.0837237 
0.0152921 0.00356892 0.0837237 0.0117816 4.48598e-05 0.0837237 0.0164569 -0.00110475 0.0837237 
0.0201589 0.00236947 0.0837237 0.0189144 0.00707811 0.0837237 0.0152921 0.00356892 0.0837237 
-0.0176812 0.0123146 0.0837237 -0.0220227 0.0136092 0.0837237 -0.0209022 0.00905108 0.0837237 
0.0120396 -0.017547 0.0837237 0.0123194 -0.0226331 0.0837237 0.0157279 -0.0202072 0.0837237 
0.0201589 0.00236947 0.0837237 0.0152921 0.00356892 0.0837237 0.0164569 -0.00110475 0.0837237 
0.0189144 0.00707811 0.0837237 0.0228419 0.00568166 0.0837237 0.0233864 0.0102056 0.0837237 
-0.0119049 0.0231923 0.0837237 -0.0110301 0.0188699 0.0837237 -0.0076627 0.0219387 0.0837237 
0.0159555 -0.0144888 0.0837237 0.0193677 -0.0178292 0.0837237 0.02139 -0.0141683 0.0837237 
0.00050668 0.0249923 0.0837237 0.0049706 0.0224562 0.0837237 0.00475217 0.0262618 0.0837237 
0.0200699 -0.00761178 0.0837237 0.0184672 -0.0112631 0.0837237 0.023376 -0.0105655 0.0837237 
-0.0143728 0.0156392 0.0837237 -0.0110301 0.0188699 0.0837237 -0.0155033 0.0203259 0.0837237 
0.0190979 0.0173202 0.0837237 0.0151607 0.0162574 0.0837237 0.0178597 0.0123767 0.0837237 
0.015062 -0.00917333 0.0837237 0.0184672 -0.0112631 0.0837237 0.0200699 -0.00761178 0.0837237 
0.00814478 -0.0242894 0.0837237 0.00891473 -0.0202971 0.0837237 0.00450018 -0.0206173 0.0837237 
-9.41575e-05 -0.0230183 0.0837237 0.00371169 -0.0256228 0.0837237 0.00450018 -0.0206173 0.0837237 
0.0201589 0.00236947 0.0837237 0.0164569 -0.00110475 0.0837237 0.0214704 -0.00283669 0.0837237 
0.0200699 -0.00761178 0.0837237 0.0170352 -0.00513945 0.0837237 0.015062 -0.00917333 0.0837237 
-0.0076627 0.0219387 0.0837237 -0.0110301 0.0188699 0.0837237 -0.00640818 0.0176548 0.0837237 
0.0157279 -0.0202072 0.0837237 0.0193677 -0.0178292 0.0837237 0.0159555 -0.0144888 0.0837237 
0.00170261 0.0199253 0.0837237 0.0049706 0.0224562 0.0837237 0.00050668 0.0249923 0.0837237 
0.0157653 0.0203057 0.0837237 0.0122843 0.0228125 0.0837237 0.0113385 0.0181284 0.0837237 
0.00050668 0.0249923 0.0837237 -0.00306504 0.0210841 0.0837237 0.00170261 0.0199253 0.0837237 
0.0159555 -0.0144888 0.0837237 0.0120396 -0.017547 0.0837237 0.0157279 -0.0202072 0.0837237 
-0.0247613 0.00595337 0.0837237 -0.0269306 0.00213112 0.0837237 -0.0230511 0.00103609 0.0837237 
0.0178597 0.0123767 0.0837237 0.0220564 0.0145128 0.0837237 0.0190979 0.0173202 0.0837237 
-0.00809412 -0.0211818 0.0837237 -0.00884013 -0.0252871 0.0837237 -0.00437754 -0.0252867 0.0837237 
-0.00437754 -0.0252867 0.0837237 -0.0036895 -0.0211171 0.0837237 -0.00809412 -0.0211818 0.0837237 
-0.0165351 -0.0104289 0.0837237 -0.0210329 -0.00857697 0.0837237 -0.0210811 -0.013826 0.0837237 
0.00450018 -0.0206173 0.0837237 0.00371169 -0.0256228 0.0837237 0.00814478 -0.0242894 0.0837237 
-0.0247613 0.00595337 0.0837237 -0.0230511 0.00103609 0.0837237 -0.0198826 0.00432235 0.0837237 
0.0233864 0.0102056 0.0837237 0.0220564 0.0145128 0.0837237 0.0178597 0.0123767 0.0837237 
0.0254585 0.00211549 0.0837237 0.0214704 -0.00283669 0.0837237 0.0262759 -0.00240162 0.0837237 
-0.0210811 -0.013826 0.0837237 -0.0192711 -0.0181234 0.0837237 -0.0152457 -0.0157881 0.0837237 
0.0233864 0.0102056 0.0837237 0.0178597 0.0123767 0.0837237 0.0189144 0.00707811 0.0837237 
0.0254585 0.00211549 0.0837237 0.0201589 0.00236947 0.0837237 0.0214704 -0.00283669 0.0837237 
-0.0210811 -0.013826 0.0837237 -0.0152457 -0.0157881 0.0837237 -0.0165351 -0.0104289 0.0837237 

POLYGONS 2035 6102
OFFSETS vtktypeint64
0 3 6 9 12 15 18 21 24 
27 30 33 36 39 42 45 48 51 
54 57 60 63 66 69 72 75 78 
81 84 87 90 93 96 99 102 105 
108 111 114 117 120 123 126 129 132 
135 138 141 144 147 150 153 156 159 
162 165 168 171 174 177 180 183 186 
189 192 195 198 201 204 207 210 213 
216 219 222 225 228 231 234 237 240 
243 246 249 252 255 258 261 264 267 
270 273 276 279 282 285 288 291 294 
297 300 303 306 309 312 315 318 321 
324 327 330 333 336 339 342 345 348 
351 354 357 360 363 366 369 372 375 
378 381 384 387 390 393 396 399 402 
405 408 411 414 417 420 423 426 429 
432 435 438 441 444 447 450 453 456 
459 462 465 468 471 474 477 480 483 
486 489 492 495 498 501 504 507 510 
513 516 519 522 525 528 531 534 537 
540 543 546 549 552 555 558 561 564 
567 570 573 576 579 582 585 588 591 
594 597 600 603 606 609 612 615 618 
621 624 627 630 633 636 639 642 645 
648 651 654 657 660 663 666 669 672 
675 678 681 684 687 690 693 696 699 
702 705 708 711 714 717 720 723 726 
729 732 735 738 741 744 747 750 753 
756 759 762 765 768 771 774 777 780 
783 786 789 792 795 798 801 804 807 
810 813 816 819 822 825 828 831 834 
837 840 843 846 849 852 855 858 861 
864 867 870 873 876 879 882 885 888 
891 894 897 900 903 906 909 912 915 
918 921 924 927 930 933 936 939 942 
945 948 951 954 957 960 963 966 969 
972 975 978 981 984 987 990 993 996 
999 1002 1005 1008 1011 1014 1017 1020 1023 
1026 1029 1032 1035 1038 1041 1044 1047 1050 
1053 1056 1059 1062 1065 1068 1071 1074 1077 
1080 1083 1086 1089 1092 1095 1098 1101 1104 
1107 1110 1113 1116 1119 1122 1125 1128 1131 
1134 1137 1140 1143 1146 1149 1152 1155 1158 
1161 1164 1167 1170 1173 1176 1179 1182 1185 
1188 1191 1194 1197 1200 1203 1206 1209 1212 
1215 1218 1221 1224 1227 1230 1233 1236 1239 
1242 1245 1248 1251 1254 1257 1260 1263 1266 
1269 1272 1275 1278 1281 1284 1287 1290 1293 
1296 1299 1302 1305 1308 1311 1314 1317 1320 
1323 1326 1329 1332 1335 1338 1341 1344 1347 
1350 1353 1356 1359 1362 1365 1368 1371 1374 
1377 1380 1383 1386 1389 1392 1395 1398 1401 
1404 1407 1410 1413 1416 1419 1422 1425 1428 
1431 1434 1437 1440 1443 1446 1449 1452 1455 
1458 1461 1464 1467 1470 1473 1476 1479 1482 
1485 1488 1491 1494 1497 1500 1503 1506 1509 
1512 1515 1518 1521 1524 1527 1530 1533 1536 
1539 1542 1545 1548 1551 1554 1557 1560 1563 
1566 1569 1572 1575 1578 1581 1584 1587 1590 
1593 1596 1599 1602 1605 1608 1611 1614 1617 
1620 1623 1626 1629 1632 1635 1638 1641 1644 
1647 1650 1653 1656 1659 1662 1665 1668 1671 
1674 1677 1680 1683 1686 1689 1692 1695 1698 
1701 1704 1707 1710 1713 1716 1719 1722 1725 
1728 1731 1734 1737 1740 1743 1746 1749 1752 
1755 1758 1761 1764 1767 1770 1773 1776 1779 
1782 1785 1788 1791 1794 1797 1800 1803 1806 
1809 1812 1815 1818 1821 1824 1827 1830 1833 
1836 1839 1842 1845 1848 1851 1854 1857 1860 
1863 1866 1869 1872 1875 1878 1881 1884 1887 
1890 1893 1896 1899 1902 1905 1908 1911 1914 
1917 1920 1923 1926 1929 1932 1935 1938 1941 
1944 1947 1950 1953 1956 1959 1962 1965 1968 
1971 1974 1977 1980 1983 1986 1989 1992 1995 
1998 2001 2004 2007 2010 2013 2016 2019 2022 
2025 2028 2031 2034 2037 2040 2043 2046 2049 
2052 2055 2058 2061 2064 2067 2070 2073 2076 
2079 2082 2085 2088 2091 2094 2097 2100 2103 
2106 2109 2112 2115 2118 2121 2124 2127 2130 
2133 2136 2139 2142 2145 2148 2151 2154 2157 
2160 2163 2166 2169 2172 2175 2178 2181 2184 
2187 2190 2193 2196 2199 2202 2205 2208 2211 
2214 2217 2220 2223 2226 2229 2232 2235 2238 
2241 2244 2247 2250 2253 2256 2259 2262 2265 
2268 2271 2274 2277 2280 2283 2286 2289 2292 
2295 2298 2301 2304 2307 2310 2313 2316 2319 
2322 2325 2328 2331 2334 2337 2340 2343 2346 
2349 2352 2355 2358 2361 2364 2367 2370 2373 
2376 2379 2382 2385 2388 2391 2394 2397 2400 
2403 2406 2409 2412 2415 2418 2421 2424 2427 
2430 2433 2436 2439 2442 2445 2448 2451 2454 
2457 2460 2463 2466 2469 2472 2475 2478 2481 
2484 2487 2490 2493 2496 2499 2502 2505 2508 
2511 2514 2517 2520 2523 2526 2529 2532 2535 
2538 2541 2544 2547 2550 2553 2556 2559 2562 
2565 2568 2571 2574 2577 2580 2583 2586 2589 
2592 2595 2598 2601 2604 2607 2610 2613 2616 
2619 2622 2625 2628 2631 2634 2637 2640 2643 
2646 2649 2652 2655 2658 2661 2664 2667 2670 
2673 2676 2679 2682 2685 2688 2691 2694 2697 
2700 2703 2706 2709 2712 2715 2718 2721 2724 
2727 2730 2733 2736 2739 2742 2745 2748 2751 
2754 2757 2760 2763 2766 2769 2772 2775 2778 
2781 2784 2787 2790 2793 2796 2799 2802 2805 
2808 2811 2814 2817 2820 2823 2826 2829 2832 
2835 2838 2841 2844 2847 2850 2853 2856 2859 
2862 2865 2868 2871 2874 2877 2880 2883 2886 
2889 2892 2895 2898 2901 2904 2907 2910 2913 
2916 2919 2922 2925 2928 2931 2934 2937 2940 
2943 2946 2949 2952 2955 2958 2961 2964 2967 
2970 2973 2976 2979 2982 2985 2988 2991 2994 
2997 3000 3003 3006 3009 3012 3015 3018 3021 
3024 3027 3030 3033 3036 3039 3042 3045 3048 
3051 3054 3057 3060 3063 3066 3069 3072 3075 
3078 3081 3084 3087 3090 3093 3096 3099 3102 
3105 3108 3111 3114 3117 3120 3123 3126 3129 
3132 3135 3138 3141 3144 3147 3150 3153 3156 
3159 3162 3165 3168 3171 3174 3177 3180 3183 
3186 3189 3192 3195 3198 3201 3204 3207 3210 
3213 3216 3219 3222 3225 3228 3231 3234 3237 
3240 3243 3246 3249 3252 3255 3258 3261 3264 
3267 3270 3273 3276 3279 3282 3285 3288 3291 
3294 3297 3300 3303 3306 3309 3312 3315 3318 
3321 3324 3327 3330 3333 3336 3339 3342 3345 
3348 3351 3354 3357 3360 3363 3366 3369 3372 
3375 3378 3381 3384 3387 3390 3393 3396 3399 
3402 3405 3408 3411 3414 3417 3420 3423 3426 
3429 3432 3435 3438 3441 3444 3447 3450 3453 
3456 3459 3462 3465 3468 3471 3474 3477 3480 
3483 3486 3489 3492 3495 3498 3501 3504 3507 
3510 3513 3516 3519 3522 3525 3528 3531 3534 
3537 3540 3543 3546 3549 3552 3555 3558 3561 
3564 3567 3570 3573 3576 3579 3582 3585 3588 
3591 3594 3597 3600 3603 3606 3609 3612 3615 
3618 3621 3624 3627 3630 3633 3636 3639 3642 
3645 3648 3651 3654 3657 3660 3663 3666 3669 
3672 3675 3678 3681 3684 3687 3690 3693 3696 
3699 3702 3705 3708 3711 3714 3717 3720 3723 
3726 3729 3732 3735 3738 3741 3744 3747 3750 
3753 3756 3759 3762 3765 3768 3771 3774 3777 
3780 3783 3786 3789 3792 3795 3798 3801 3804 
3807 3810 3813 3816 3819 3822 3825 3828 3831 
3834 3837 3840 3843 3846 3849 3852 3855 3858 
3861 3864 3867 3870 3873 3876 3879 3882 3885 
3888 3891 3894 3897 3900 3903 3906 3909 3912 
3915 3918 3921 3924 3927 3930 3933 3936 3939 
3942 3945 3948 3951 3954 3957 3960 3963 3966 
3969 3972 3975 3978 3981 3984 3987 3990 3993 
3996 3999 4002 4005 4008 4011 4014 4017 4020 
4023 4026 4029 4032 4035 4038 4041 4044 4047 
4050 4053 4056 4059 4062 4065 4068 4071 4074 
4077 4080 4083 4086 4089 4092 4095 4098 4101 
4104 4107 4110 4113 4116 4119 4122 4125 4128 
4131 4134 4137 4140 4143 4146 4149 4152 4155 
4158 4161 4164 4167 4170 4173 4176 4179 4182 
4185 4188 4191 4194 4197 4200 4203 4206 4209 
4212 4215 4218 4221 4224 4227 4230 4233 4236 
4239 4242 4245 4248 4251 4254 4257 4260 4263 
4266 4269 4272 4275 4278 4281 4284 4287 4290 
4293 4296 4299 4302 4305 4308 4311 4314 4317 
4320 4323 4326 4329 4332 4335 4338 4341 4344 
4347 4350 4353 4356 4359 4362 4365 4368 4371 
4374 4377 4380 4383 4386 4389 4392 4395 4398 
4401 4404 4407 4410 4413 4416 4419 4422 4425 
4428 4431 4434 4437 4440 4443 4446 4449 4452 
4455 4458 4461 4464 4467 4470 4473 4476 4479 
4482 4485 4488 4491 4494 4497 4500 4503 4506 
4509 4512 4515 4518 4521 4524 4527 4530 4533 
4536 4539 4542 4545 4548 4551 4554 4557 4560 
4563 4566 4569 4572 4575 4578 4581 4584 4587 
4590 4593 4596 4599 4602 4605 4608 4611 4614 
4617 4620 4623 4626 4629 4632 4635 4638 4641 
4644 4647 4650 4653 4656 4659 4662 4665 4668 
4671 4674 4677 4680 4683 4686 4689 4692 4695 
4698 4701 4704 4707 4710 4713 4716 4719 4722 
4725 4728 4731 4734 4737 4740 4743 4746 4749 
4752 4755 4758 4761 4764 4767 4770 4773 4776 
4779 4782 4785 4788 4791 4794 4797 4800 4803 
4806 4809 4812 4815 4818 4821 4824 4827 4830 
4833 4836 4839 4842 4845 4848 4851 4854 4857 
4860 4863 4866 4869 4872 4875 4878 4881 4884 
4887 4890 4893 4896 4899 4902 4905 4908 4911 
4914 4917 4920 4923 4926 4929 4932 4935 4938 
4941 4944 4947 4950 4953 4956 4959 4962 4965 
4968 4971 4974 4977 4980 4983 4986 4989 4992 
4995 4998 5001 5004 5007 5010 5013 5016 5019 
5022 5025 5028 5031 5034 5037 5040 5043 5046 
5049 5052 5055 5058 5061 5064 5067 5070 5073 
5076 5079 5082 5085 5088 5091 5094 5097 5100 
5103 5106 5109 5112 5115 5118 5121 5124 5127 
5130 5133 5136 5139 5142 5145 5148 5151 5154 
5157 5160 5163 5166 5169 5172 5175 5178 5181 
5184 5187 5190 5193 5196 5199 5202 5205 5208 
5211 5214 5217 5220 5223 5226 5229 5232 5235 
5238 5241 5244 5247 5250 5253 5256 5259 5262 
5265 5268 5271 5274 5277 5280 5283 5286 5289 
5292 5295 5298 5301 5304 5307 5310 5313 5316 
5319 5322 5325 5328 5331 5334 5337 5340 5343 
5346 5349 5352 5355 5358 5361 5364 5367 5370 
5373 5376 5379 5382 5385 5388 5391 5394 5397 
5400 5403 5406 5409 5412 5415 5418 5421 5424 
5427 5430 5433 5436 5439 5442 5445 5448 5451 
5454 5457 5460 5463 5466 5469 5472 5475 5478 
5481 5484 5487 5490 5493 5496 5499 5502 5505 
5508 5511 5514 5517 5520 5523 5526 5529 5532 
5535 5538 5541 5544 5547 5550 5553 5556 5559 
5562 5565 5568 5571 5574 5577 5580 5583 5586 
5589 5592 5595 5598 5601 5604 5607 5610 5613 
5616 5619 5622 5625 5628 5631 5634 5637 5640 
5643 5646 5649 5652 5655 5658 5661 5664 5667 
5670 5673 5676 5679 5682 5685 5688 5691 5694 
5697 5700 5703 5706 5709 5712 5715 5718 5721 
5724 5727 5730 5733 5736 5739 5742 5745 5748 
5751 5754 5757 5760 5763 5766 5769 5772 5775 
5778 5781 5784 5787 5790 5793 5796 5799 5802 
5805 5808 5811 5814 5817 5820 5823 5826 5829 
5832 5835 5838 5841 5844 5847 5850 5853 5856 
5859 5862 5865 5868 5871 5874 5877 5880 5883 
5886 5889 5892 5895 5898 5901 5904 5907 5910 
5913 5916 5919 5922 5925 5928 5931 5934 5937 
5940 5943 5946 5949 5952 5955 5958 5961 5964 
5967 5970 5973 5976 5979 5982 5985 5988 5991 
5994 5997 6000 6003 6006 6009 6012 6015 6018 
6021 6024 6027 6030 6033 6036 6039 6042 6045 
6048 6051 6054 6057 6060 6063 6066 6069 6072 
6075 6078 6081 6084 6087 6090 6093 6096 6099 
6102 
CONNECTIVITY vtktypeint64
0 1 2 3 4 5 6 7 8 
9 10 11 12 13 14 15 16 17 
18 19 20 21 22 23 24 25 26 
27 28 29 30 31 32 33 34 35 
36 37 38 39 40 41 42 43 44 
45 46 47 48 49 50 51 52 53 
54 55 56 57 58 59 60 61 62 
63 64 65 66 67 68 69 70 71 
72 73 74 75 76 77 78 79 80 
81 82 83 84 85 86 87 88 89 
90 91 92 93 94 95 96 97 98 
99 100 101 102 103 104 105 106 107 
108 109 110 111 112 113 114 115 116 
117 118 119 120 121 122 123 124 125 
126 127 128 129 130 131 132 133 134 
135 136 137 138 139 140 141 142 143 
144 145 146 147 148 149 150 151 152 
153 154 155 156 157 158 159 160 161 
162 163 164 165 166 167 168 169 170 
171 172 173 174 175 176 177 178 179 
180 181 182 183 184 185 186 187 188 
189 190 191 192 193 194 195 196 197 
198 199 200 201 202 203 204 205 206 
207 208 209 210 211 212 213 214 215 
216 217 218 219 220 221 222 223 224 
225 226 227 228 229 230 231 232 233 
234 235 236 237 238 239 240 241 242 
243 244 245 246 247 248 249 250 251 
252 253 254 255 256 257 258 259 260 
261 262 263 264 265 266 267 268 269 
270 271 272 273 274 275 276 277 278 
279 280 281 282 283 284 285 286 287 
288 289 290 291 292 293 294 295 296 
297 298 299 300 301 302 303 304 305 
306 307 308 309 310 311 312 313 314 
315 316 317 318 319 320 321 322 323 
324 325 326 327 328 329 330 331 332 
333 334 335 336 337 338 339 340 341 
342 343 344 345 346 347 348 349 350 
351 352 353 354 355 356 357 358 359 
360 361 362 363 364 365 366 367 368 
369 370 371 372 373 374 375 376 377 
378 379 380 381 382 383 384 385 386 
387 388 389 390 391 392 393 394 395 
396 397 398 399 400 401 402 403 404 
405 406 407 408 409 410 411 412 413 
414 415 416 417 418 419 420 421 422 
423 424 425 426 427 428 429 430 431 
432 433 434 435 436 437 438 439 440 
441 442 443 444 445 446 447 448 449 
450 451 452 453 454 455 456 457 458 
459 460 461 462 463 464 465 466 467 
468 469 470 471 472 473 474 475 476 
477 478 479 480 481 482 483 484 485 
486 487 488 489 490 491 492 493 494 
495 496 497 498 499 500 501 502 503 
504 505 506 507 508 509 510 511 512 
513 514 515 516 517 518 519 520 521 
522 523 524 525 526 527 528 529 530 
531 532 533 534 535 536 537 538 539 
540 541 542 543 544 545 546 547 548 
549 550 551 552 553 554 555 556 557 
558 559 560 561 562 563 564 565 566 
567 568 569 570 571 572 573 574 575 
576 577 578 579 580 581 582 583 584 
585 586 587 588 589 590 591 592 593 
594 595 596 597 598 599 600 601 602 
603 604 605 606 607 608 609 610 611 
612 613 614 615 616 617 618 619 620 
621 622 623 624 625 626 627 628 629 
630 631 632 633 634 635 636 637 638 
639 640 641 642 643 644 645 646 647 
648 649 650 651 652 653 654 655 656 
657 658 659 660 661 662 663 664 665 
666 667 668 669 670 671 672 673 674 
675 676 677 678 679 680 681 682 683 
684 685 686 687 688 689 690 691 692 
693 694 695 696 697 698 699 700 701 
702 703 704 705 706 707 708 709 710 
711 712 713 714 715 716 717 718 719 
720 721 722 723 724 725 726 727 728 
729 730 731 732 733 734 735 736 737 
738 739 740 741 742 743 744 745 746 
747 748 749 750 751 752 753 754 755 
756 757 758 759 760 761 762 763 764 
765 766 767 768 769 770 771 772 773 
774 775 776 777 778 779 780 781 782 
783 784 785 786 787 788 789 790 791 
792 793 794 795 796 797 798 799 800 
801 802 803 804 805 806 807 808 809 
810 811 812 813 814 815 816 817 818 
819 820 821 822 823 824 825 826 827 
828 829 830 831 832 833 834 835 836 
837 838 839 840 841 842 843 844 845 
846 847 848 849 850 851 852 853 854 
855 856 857 858 859 860 861 862 863 
864 865 866 867 868 869 870 871 872 
873 874 875 876 877 878 879 880 881 
882 883 884 885 886 887 888 889 890 
891 892 893 894 895 896 897 898 899 
900 901 902 903 904 905 906 907 908 
909 910 911 912 913 914 915 916 917 
918 919 920 921 922 923 924 925 926 
927 928 929 930 931 932 933 934 935 
936 937 938 939 940 941 942 943 944 
945 946 947 948 949 950 951 952 953 
954 955 956 957 958 959 960 961 962 
963 964 965 966 967 968 969 970 971 
972 973 974 975 976 977 978 979 980 
981 982 983 984 985 986 987 988 989 
990 991 992 993 994 995 996 997 998 
999 1000 1001 1002 1003 1004 1005 1006 1007 
1008 1009 1010 1011 1012 1013 1014 1015 1016 
1017 1018 1019 1020 1021 1022 1023 1024 1025 
1026 1027 1028 1029 1030 1031 1032 1033 1034 
1035 1036 1037 1038 1039 1040 1041 1042 1043 
1044 1045 1046 1047 1048 1049 1050 1051 1052 
1053 1054 1055 1056 1057 1058 1059 1060 1061 
1062 1063 1064 1065 1066 1067 1068 1069 1070 
1071 1072 1073 1074 1075 1076 1077 1078 1079 
1080 1081 1082 1083 1084 1085 1086 1087 1088 
1089 1090 1091 1092 1093 1094 1095 1096 1097 
1098 1099 1100 1101 1102 1103 1104 1105 1106 
1107 1108 1109 1110 1111 1112 1113 1114 1115 
1116 1117 1118 1119 1120 1121 1122 1123 1124 
1125 1126 1127 1128 1129 1130 1131 1132 1133 
1134 1135 1136 1137 1138 1139 1140 1141 1142 
1143 1144 1145 1146 1147 1148 1149 1150 1151 
1152 1153 1154 1155 1156 1157 1158 1159 1160 
1161 1162 1163 1164 1165 1166 1167 1168 1169 
1170 1171 1172 1173 1174 1175 1176 1177 1178 
1179 1180 1181 1182 1183 1184 1185 1186 1187 
1188 1189 1190 1191 1192 1193 1194 1195 1196 
1197 1198 1199 1200 1201 1202 1203 1204 1205 
1206 1207 1208 1209 1210 1211 1212 1213 1214 
1215 1216 1217 1218 1219 1220 1221 1222 1223 
1224 1225 1226 1227 1228 1229 1230 1231 1232 
1233 1234 1235 1236 1237 1238 1239 1240 1241 
1242 1243 1244 1245 1246 1247 1248 1249 1250 
1251 1252 1253 1254 1255 1256 1257 1258 1259 
1260 1261 1262 1263 1264 1265 1266 1267 1268 
1269 1270 1271 1272 1273 1274 1275 1276 1277 
1278 1279 1280 1281 1282 1283 1284 1285 1286 
1287 1288 1289 1290 1291 1292 1293 1294 1295 
1296 1297 1298 1299 1300 1301 1302 1303 1304 
1305 1306 1307 1308 1309 1310 1311 1312 1313 
1314 1315 1316 1317 1318 1319 1320 1321 1322 
1323 1324 1325 1326 1327 1328 1329 1330 1331 
1332 1333 1334 1335 1336 1337 1338 1339 1340 
1341 1342 1343 1344 1345 1346 1347 1348 1349 
1350 1351 1352 1353 1354 1355 1356 1357 1358 
1359 1360 1361 1362 1363 1364 1365 1366 1367 
1368 1369 1370 1371 1372 1373 1374 1375 1376 
1377 1378 1379 1380 1381 1382 1383 1384 1385 
1386 1387 1388 1389 1390 1391 1392 1393 1394 
1395 1396 1397 1398 1399 1400 1401 1402 1403 
1404 1405 1406 1407 1408 1409 1410 1411 1412 
1413 1414 1415 1416 1417 1418 1419 1420 1421 
1422 1423 1424 1425 1426 1427 1428 1429 1430 
1431 1432 1433 1434 1435 1436 1437 1438 1439 
1440 1441 1442 1443 1444 1445 1446 1447 1448 
1449 1450 1451 1452 1453 1454 1455 1456 1457 
1458 1459 1460 1461 1462 1463 1464 1465 1466 
1467 1468 1469 1470 1471 1472 1473 1474 1475 
1476 1477 1478 1479 1480 1481 1482 1483 1484 
1485 1486 1487 1488 1489 1490 1491 1492 1493 
1494 1495 1496 1497 1498 1499 1500 1501 1502 
1503 1504 1505 1506 1507 1508 1509 1510 1511 
1512 1513 1514 1515 1516 1517 1518 1519 1520 
1521 1522 1523 1524 1525 1526 1527 1528 1529 
1530 1531 1532 1533 1534 1535 1536 1537 1538 
1539 1540 1541 1542 1543 1544 1545 1546 1547 
1548 1549 1550 1551 1552 1553 1554 1555 1556 
1557 1558 1559 1560 1561 1562 1563 1564 1565 
1566 1567 1568 1569 1570 1571 1572 1573 1574 
1575 1576 1577 1578 1579 1580 1581 1582 1583 
1584 1585 1586 1587 1588 1589 1590 1591 1592 
1593 1594 1595 1596 1597 1598 1599 1600 1601 
1602 1603 1604 1605 1606 1607 1608 1609 1610 
1611 1612 1613 1614 1615 1616 1617 1618 1619 
1620 1621 1622 1623 1624 1625 1626 1627 1628 
1629 1630 1631 1632 1633 1634 1635 1636 1637 
1638 1639 1640 1641 1642 1643 1644 1645 1646 
1647 1648 1649 1650 1651 1652 1653 1654 1655 
1656 1657 1658 1659 1660 1661 1662 1663 1664 
1665 1666 1667 1668 1669 1670 1671 1672 1673 
1674 1675 1676 1677 1678 1679 1680 1681 1682 
1683 1684 1685 1686 1687 1688 1689 1690 1691 
1692 1693 1694 1695 1696 1697 1698 1699 1700 
1701 1702 1703 1704 1705 1706 1707 1708 1709 
1710 1711 1712 1713 1714 1715 1716 1717 1718 
1719 1720 1721 1722 1723 1724 1725 1726 1727 
1728 1729 1730 1731 1732 1733 1734 1735 1736 
1737 1738 1739 1740 1741 1742 1743 1744 1745 
1746 1747 1748 1749 1750 1751 1752 1753 1754 
1755 1756 1757 1758 1759 1760 1761 1762 1763 
1764 1765 1766 1767 1768 1769 1770 1771 1772 
1773 1774 1775 1776 1777 1778 1779 1780 1781 
1782 1783 1784 1785 1786 1787 1788 1789 1790 
1791 1792 1793 1794 1795 1796 1797 1798 1799 
1800 1801 1802 1803 1804 1805 1806 1807 1808 
1809 1810 1811 1812 1813 1814 1815 1816 1817 
1818 1819 1820 1821 1822 1823 1824 1825 1826 
1827 1828 1829 1830 1831 1832 1833 1834 1835 
1836 1837 1838 1839 1840 1841 1842 1843 1844 
1845 1846 1847 1848 1849 1850 1851 1852 1853 
1854 1855 1856 1857 1858 1859 1860 1861 1862 
1863 1864 1865 1866 1867 1868 1869 1870 1871 
1872 1873 1874 1875 1876 1877 1878 1879 1880 
1881 1882 1883 1884 1885 1886 1887 1888 1889 
1890 1891 1892 1893 1894 1895 1896 1897 1898 
1899 1900 1901 1902 1903 1904 1905 1906 1907 
1908 1909 1910 1911 1912 1913 1914 1915 1916 
1917 1918 1919 1920 1921 1922 1923 1924 1925 
1926 1927 1928 1929 1930 1931 1932 1933 1934 
1935 1936 1937 1938 1939 1940 1941 1942 1943 
1944 1945 1946 1947 1948 1949 1950 1951 1952 
1953 1954 1955 1956 1957 1958 1959 1960 1961 
1962 1963 1964 1965 1966 1967 1968 1969 1970 
1971 1972 1973 1974 1975 1976 1977 1978 1979 
1980 1981 1982 1983 1984 1985 1986 1987 1988 
1989 1990 1991 1992 1993 1994 1995 1996 1997 
1998 1999 2000 2001 2002 2003 2004 2005 2006 
2007 2008 2009 2010 2011 2012 2013 2014 2015 
2016 2017 2018 2019 2020 2021 2022 2023 2024 
2025 2026 2027 2028 2029 2030 2031 2032 2033 
2034 2035 2036 2037 2038 2039 2040 2041 2042 
2043 2044 2045 2046 2047 2048 2049 2050 2051 
2052 2053 2054 2055 2056 2057 2058 2059 2060 
2061 2062 2063 2064 2065 2066 2067 2068 2069 
2070 2071 2072 2073 2074 2075 2076 2077 2078 
2079 2080 2081 2082 2083 2084 2085 2086 2087 
2088 2089 2090 2091 2092 2093 2094 2095 2096 
2097 2098 2099 2100 2101 2102 2103 2104 2105 
2106 2107 2108 2109 2110 2111 2112 2113 2114 
2115 2116 2117 2118 2119 2120 2121 2122 2123 
2124 2125 2126 2127 2128 2129 2130 2131 2132 
2133 2134 2135 2136 2137 2138 2139 2140 2141 
2142 2143 2144 2145 2146 2147 2148 2149 2150 
2151 2152 2153 2154 2155 2156 2157 2158 2159 
2160 2161 2162 2163 2164 2165 2166 2167 2168 
2169 2170 2171 2172 2173 2174 2175 2176 2177 
2178 2179 2180 2181 2182 2183 2184 2185 2186 
2187 2188 2189 2190 2191 2192 2193 2194 2195 
2196 2197 2198 2199 2200 2201 2202 2203 2204 
2205 2206 2207 2208 2209 2210 2211 2212 2213 
2214 2215 2216 2217 2218 2219 2220 2221 2222 
2223 2224 2225 2226 2227 2228 2229 2230 2231 
2232 2233 2234 2235 2236 2237 2238 2239 2240 
2241 2242 2243 2244 2245 2246 2247 2248 2249 
2250 2251 2252 2253 2254 2255 2256 2257 2258 
2259 2260 2261 2262 2263 2264 2265 2266 2267 
2268 2269 2270 2271 2272 2273 2274 2275 2276 
2277 2278 2279 2280 2281 2282 2283 2284 2285 
2286 2287 2288 2289 2290 2291 2292 2293 2294 
2295 2296 2297 2298 2299 2300 2301 2302 2303 
2304 2305 2306 2307 2308 2309 2310 2311 2312 
2313 2314 2315 2316 2317 2318 2319 2320 2321 
2322 2323 2324 2325 2326 2327 2328 2329 2330 
2331 2332 2333 2334 2335 2336 2337 2338 2339 
2340 2341 2342 2343 2344 2345 2346 2347 2348 
2349 2350 2351 2352 2353 2354 2355 2356 2357 
2358 2359 2360 2361 2362 2363 2364 2365 2366 
2367 2368 2369 2370 2371 2372 2373 2374 2375 
2376 2377 2378 2379 2380 2381 2382 2383 2384 
2385 2386 2387 2388 2389 2390 2391 2392 2393 
2394 2395 2396 2397 2398 2399 2400 2401 2402 
2403 2404 2405 2406 2407 2408 2409 2410 2411 
2412 2413 2414 2415 2416 2417 2418 2419 2420 
2421 2422 2423 2424 2425 2426 2427 2428 2429 
2430 2431 2432 2433 2434 2435 2436 2437 2438 
2439 2440 2441 2442 2443 2444 2445 2446 2447 
2448 2449 2450 2451 2452 2453 2454 2455 2456 
2457 2458 2459 2460 2461 2462 2463 2464 2465 
2466 2467 2468 2469 2470 2471 2472 2473 2474 
2475 2476 2477 2478 2479 2480 2481 2482 2483 
2484 2485 2486 2487 2488 2489 2490 2491 2492 
2493 2494 2495 2496 2497 2498 2499 2500 2501 
2502 2503 2504 2505 2506 2507 2508 2509 2510 
2511 2512 2513 2514 2515 2516 2517 2518 2519 
2520 2521 2522 2523 2524 2525 2526 2527 2528 
2529 2530 2531 2532 2533 2534 2535 2536 2537 
2538 2539 2540 2541 2542 2543 2544 2545 2546 
2547 2548 2549 2550 2551 2552 2553 2554 2555 
2556 2557 2558 2559 2560 2561 2562 2563 2564 
2565 2566 2567 2568 2569 2570 2571 2572 2573 
2574 2575 2576 2577 2578 2579 2580 2581 2582 
2583 2584 2585 2586 2587 2588 2589 2590 2591 
2592 2593 2594 2595 2596 2597 2598 2599 2600 
2601 2602 2603 2604 2605 2606 2607 2608 2609 
2610 2611 2612 2613 2614 2615 2616 2617 2618 
2619 2620 2621 2622 2623 2624 2625 2626 2627 
2628 2629 2630 2631 2632 2633 2634 2635 2636 
2637 2638 2639 2640 2641 2642 2643 2644 2645 
2646 2647 2648 2649 2650 2651 2652 2653 2654 
2655 2656 2657 2658 2659 2660 2661 2662 2663 
2664 2665 2666 2667 2668 2669 2670 2671 2672 
2673 2674 2675 2676 2677 2678 2679 2680 2681 
2682 2683 2684 2685 2686 2687 2688 2689 2690 
2691 2692 2693 2694 2695 2696 2697 2698 2699 
2700 2701 2702 2703 2704 2705 2706 2707 2708 
2709 2710 2711 2712 2713 2714 2715 2716 2717 
2718 2719 2720 2721 2722 2723 2724 2725 2726 
2727 2728 2729 2730 2731 2732 2733 2734 2735 
2736 2737 2738 2739 2740 2741 2742 2743 2744 
2745 2746 2747 2748 2749 2750 2751 2752 2753 
2754 2755 2756 2757 2758 2759 2760 2761 2762 
2763 2764 2765 2766 2767 2768 2769 2770 2771 
2772 2773 2774 2775 2776 2777 2778 2779 2780 
2781 2782 2783 2784 2785 2786 2787 2788 2789 
2790 2791 2792 2793 2794 2795 2796 2797 2798 
2799 2800 2801 2802 2803 2804 2805 2806 2807 
2808 2809 2810 2811 2812 2813 2814 2815 2816 
2817 2818 2819 2820 2821 2822 2823 2824 2825 
2826 2827 2828 2829 2830 2831 2832 2833 2834 
2835 2836 2837 2838 2839 2840 2841 2842 2843 
2844 2845 2846 2847 2848 2849 2850 2851 2852 
2853 2854 2855 2856 2857 2858 2859 2860 2861 
2862 2863 2864 2865 2866 2867 2868 2869 2870 
2871 2872 2873 2874 2875 2876 2877 2878 2879 
2880 2881 2882 2883 2884 2885 2886 2887 2888 
2889 2890 2891 2892 2893 2894 2895 2896 2897 
2898 2899 2900 2901 2902 2903 2904 2905 2906 
2907 2908 2909 2910 2911 2912 2913 2914 2915 
2916 2917 2918 2919 2920 2921 2922 2923 2924 
2925 2926 2927 2928 2929 2930 2931 2932 2933 
2934 2935 2936 2937 2938 2939 2940 2941 2942 
2943 2944 2945 2946 2947 2948 2949 2950 2951 
2952 2953 2954 2955 2956 2957 2958 2959 2960 
2961 2962 2963 2964 2965 2966 2967 2968 2969 
2970 2971 2972 2973 2974 2975 2976 2977 2978 
2979 2980 2981 2982 2983 2984 2985 2986 2987 
2988 2989 2990 2991 2992 2993 2994 2995 2996 
2997 2998 2999 3000 3001 3002 3003 3004 3005 
3006 3007 3008 3009 3010 3011 3012 3013 3014 
3015 3016 3017 3018 3019 3020 3021 3022 3023 
3024 3025 3026 3027 3028 3029 3030 3031 3032 
3033 3034 3035 3036 3037 3038 3039 3040 3041 
3042 3043 3044 3045 3046 3047 3048 3049 3050 
3051 3052 3053 3054 3055 3056 3057 3058 3059 
3060 3061 3062 3063 3064 3065 3066 3067 3068 
3069 3070 3071 3072 3073 3074 3075 3076 3077 
3078 3079 3080 3081 3082 3083 3084 3085 3086 
3087 3088 3089 3090 3091 3092 3093 3094 3095 
3096 3097 3098 3099 3100 3101 3102 3103 3104 
3105 3106 3107 3108 3109 3110 3111 3112 3113 
3114 3115 3116 3117 3118 3119 3120 3121 3122 
3123 3124 3125 3126 3127 3128 3129 3130 3131 
3132 3133 3134 3135 3136 3137 3138 3139 3140 
3141 3142 3143 3144 3145 3146 3147 3148 3149 
3150 3151 3152 3153 3154 3155 3156 3157 3158 
3159 3160 3161 3162 3163 3164 3165 3166 3167 
3168 3169 3170 3171 3172 3173 3174 3175 3176 
3177 3178 3179 3180 3181 3182 3183 3184 3185 
3186 3187 3188 3189 3190 3191 3192 3193 3194 
3195 3196 3197 3198 3199 3200 3201 3202 3203 
3204 3205 3206 3207 3208 3209 3210 3211 3212 
3213 3214 3215 3216 3217 3218 3219 3220 3221 
3222 3223 3224 3225 3226 3227 3228 3229 3230 
3231 3232 3233 3234 3235 3236 3237 3238 3239 
3240 3241 3242 3243 3244 3245 3246 3247 3248 
3249 3250 3251 3252 3253 3254 3255 3256 3257 
3258 3259 3260 3261 3262 3263 3264 3265 3266 
3267 3268 3269 3270 3271 3272 3273 3274 3275 
3276 3277 3278 3279 3280 3281 3282 3283 3284 
3285 3286 3287 3288 3289 3290 3291 3292 3293 
3294 3295 3296 3297 3298 3299 3300 3301 3302 
3303 3304 3305 3306 3307 3308 3309 3310 3311 
3312 3313 3314 3315 3316 3317 3318 3319 3320 
3321 3322 3323 3324 3325 3326 3327 3328 3329 
3330 3331 3332 3333 3334 3335 3336 3337 3338 
3339 3340 3341 3342 3343 3344 3345 3346 3347 
3348 3349 3350 3351 3352 3353 3354 3355 3356 
3357 3358 3359 3360 3361 3362 3363 3364 3365 
3366 3367 3368 3369 3370 3371 3372 3373 3374 
3375 3376 3377 3378 3379 3380 3381 3382 3383 
3384 3385 3386 3387 3388 3389 3390 3391 3392 
3393 3394 3395 3396 3397 3398 3399 3400 3401 
3402 3403 3404 3405 3406 3407 3408 3409 3410 
3411 3412 3413 3414 3415 3416 3417 3418 3419 
3420 3421 3422 3423 3424 3425 3426 3427 3428 
3429 3430 3431 3432 3433 3434 3435 3436 3437 
3438 3439 3440 3441 3442 3443 3444 3445 3446 
3447 3448 3449 3450 3451 3452 3453 3454 3455 
3456 3457 3458 3459 3460 3461 3462 3463 3464 
3465 3466 3467 3468 3469 3470 3471 3472 3473 
3474 3475 3476 3477 3478 3479 3480 3481 3482 
3483 3484 3485 3486 3487 3488 3489 3490 3491 
3492 3493 3494 3495 3496 3497 3498 3499 3500 
3501 3502 3503 3504 3505 3506 3507 3508 3509 
3510 3511 3512 3513 3514 3515 3516 3517 3518 
3519 3520 3521 3522 3523 3524 3525 3526 3527 
3528 3529 3530 3531 3532 3533 3534 3535 3536 
3537 3538 3539 3540 3541 3542 3543 3544 3545 
3546 3547 3548 3549 3550 3551 3552 3553 3554 
3555 3556 3557 3558 3559 3560 3561 3562 3563 
3564 3565 3566 3567 3568 3569 3570 3571 3572 
3573 3574 3575 3576 3577 3578 3579 3580 3581 
3582 3583 3584 3585 3586 3587 3588 3589 3590 
3591 3592 3593 3594 3595 3596 3597 3598 3599 
3600 3601 3602 3603 3604 3605 3606 3607 3608 
3609 3610 3611 3612 3613 3614 3615 3616 3617 
3618 3619 3620 3621 3622 3623 3624 3625 3626 
3627 3628 3629 3630 3631 3632 3633 3634 3635 
3636 3637 3638 3639 3640 3641 3642 3643 3644 
3645 3646 3647 3648 3649 3650 3651 3652 3653 
3654 3655 3656 3657 3658 3659 3660 3661 3662 
3663 3664 3665 3666 3667 3668 3669 3670 3671 
3672 3673 3674 3675 3676 3677 3678 3679 3680 
3681 3682 3683 3684 3685 3686 3687 3688 3689 
3690 3691 3692 3693 3694 3695 3696 3697 3698 
3699 3700 3701 3702 3703 3704 3705 3706 3707 
3708 3709 3710 3711 3712 3713 3714 3715 3716 
3717 3718 3719 3720 3721 3722 3723 3724 3725 
3726 3727 3728 3729 3730 3731 3732 3733 3734 
3735 3736 3737 3738 3739 3740 3741 3742 3743 
3744 3745 3746 3747 3748 3749 3750 3751 3752 
3753 3754 3755 3756 3757 3758 3759 3760 3761 
3762 3763 3764 3765 3766 3767 3768 3769 3770 
3771 3772 3773 3774 3775 3776 3777 3778 3779 
3780 3781 3782 3783 3784 3785 3786 3787 3788 
3789 3790 3791 3792 3793 3794 3795 3796 3797 
3798 3799 3800 3801 3802 3803 3804 3805 3806 
3807 3808 3809 3810 3811 3812 3813 3814 3815 
3816 3817 3818 3819 3820 3821 3822 3823 3824 
3825 3826 3827 3828 3829 3830 3831 3832 3833 
3834 3835 3836 3837 3838 3839 3840 3841 3842 
3843 3844 3845 3846 3847 3848 3849 3850 3851 
3852 3853 3854 3855 3856 3857 3858 3859 3860 
3861 3862 3863 3864 3865 3866 3867 3868 3869 
3870 3871 3872 3873 3874 3875 3876 3877 3878 
3879 3880 3881 3882 3883 3884 3885 3886 3887 
3888 3889 3890 3891 3892 3893 3894 3895 3896 
3897 3898 3899 3900 3901 3902 3903 3904 3905 
3906 3907 3908 3909 3910 3911 3912 3913 3914 
3915 3916 3917 3918 3919 3920 3921 3922 3923 
3924 3925 3926 3927 3928 3929 3930 3931 3932 
3933 3934 3935 3936 3937 3938 3939 3940 3941 
3942 3943 3944 3945 3946 3947 3948 3949 3950 
3951 3952 3953 3954 3955 3956 3957 3958 3959 
3960 3961 3962 3963 3964 3965 3966 3967 3968 
3969 3970 3971 3972 3973 3974 3975 3976 3977 
3978 3979 3980 3981 3982 3983 3984 3985 3986 
3987 3988 3989 3990 3991 3992 3993 3994 3995 
3996 3997 3998 3999 4000 4001 4002 4003 4004 
4005 4006 4007 4008 4009 4010 4011 4012 4013 
4014 4015 4016 4017 4018 4019 4020 4021 4022 
4023 4024 4025 4026 4027 4028 4029 4030 4031 
4032 4033 4034 4035 4036 4037 4038 4039 4040 
4041 4042 4043 4044 4045 4046 4047 4048 4049 
4050 4051 4052 4053 4054 4055 4056 4057 4058 
4059 4060 4061 4062 4063 4064 4065 4066 4067 
4068 4069 4070 4071 4072 4073 4074 4075 4076 
4077 4078 4079 4080 4081 4082 4083 4084 4085 
4086 4087 4088 4089 4090 4091 4092 4093 4094 
4095 4096 4097 4098 4099 4100 4101 4102 4103 
4104 4105 4106 4107 4108 4109 4110 4111 4112 
4113 4114 4115 4116 4117 4118 4119 4120 4121 
4122 4123 4124 4125 4126 4127 4128 4129 4130 
4131 4132 4133 4134 4135 4136 4137 4138 4139 
4140 4141 4142 4143 4144 4145 4146 4147 4148 
4149 4150 4151 4152 4153 4154 4155 4156 4157 
4158 4159 4160 4161 4162 4163 4164 4165 4166 
4167 4168 4169 4170 4171 4172 4173 4174 4175 
4176 4177 4178 4179 4180 4181 4182 4183 4184 
4185 4186 4187 4188 4189 4190 4191 4192 4193 
4194 4195 4196 4197 4198 4199 4200 4201 4202 
4203 4204 4205 4206 4207 4208 4209 4210 4211 
4212 4213 4214 4215 4216 4217 4218 4219 4220 
4221 4222 4223 4224 4225 4226 4227 4228 4229 
4230 4231 4232 4233 4234 4235 4236 4237 4238 
4239 4240 4241 4242 4243 4244 4245 4246 4247 
4248 4249 4250 4251 4252 4253 4254 4255 4256 
4257 4258 4259 4260 4261 4262 4263 4264 4265 
4266 4267 4268 4269 4270 4271 4272 4273 4274 
4275 4276 4277 4278 4279 4280 4281 4282 4283 
4284 4285 4286 4287 4288 4289 4290 4291 4292 
4293 4294 4295 4296 4297 4298 4299 4300 4301 
4302 4303 4304 4305 4306 4307 4308 4309 4310 
4311 4312 4313 4314 4315 4316 4317 4318 4319 
4320 4321 4322 4323 4324 4325 4326 4327 4328 
4329 4330 4331 4332 4333 4334 4335 4336 4337 
4338 4339 4340 4341 4342 4343 4344 4345 4346 
4347 4348 4349 4350 4351 4352 4353 4354 4355 
4356 4357 4358 4359 4360 4361 4362 4363 4364 
4365 4366 4367 4368 4369 4370 4371 4372 4373 
4374 4375 4376 4377 4378 4379 4380 4381 4382 
4383 4384 4385 4386 4387 4388 4389 4390 4391 
4392 4393 4394 4395 4396 4397 4398 4399 4400 
4401 4402 4403 4404 4405 4406 4407 4408 4409 
4410 4411 4412 4413 4414 4415 4416 4417 4418 
4419 4420 4421 4422 4423 4424 4425 4426 4427 
4428 4429 4430 4431 4432 4433 4434 4435 4436 
4437 4438 4439 4440 4441 4442 4443 4444 4445 
4446 4447 4448 4449 4450 4451 4452 4453 4454 
4455 4456 4457 4458 4459 4460 4461 4462 4463 
4464 4465 4466 4467 4468 4469 4470 4471 4472 
4473 4474 4475 4476 4477 4478 4479 4480 4481 
4482 4483 4484 4485 4486 4487 4488 4489 4490 
4491 4492 4493 4494 4495 4496 4497 4498 4499 
4500 4501 4502 4503 4504 4505 4506 4507 4508 
4509 4510 4511 4512 4513 4514 4515 4516 4517 
4518 4519 4520 4521 4522 4523 4524 4525 4526 
4527 4528 4529 4530 4531 4532 4533 4534 4535 
4536 4537 4538 4539 4540 4541 4542 4543 4544 
4545 4546 4547 4548 4549 4550 4551 4552 4553 
4554 4555 4556 4557 4558 4559 4560 4561 4562 
4563 4564 4565 4566 4567 4568 4569 4570 4571 
4572 4573 4574 4575 4576 4577 4578 4579 4580 
4581 4582 4583 4584 4585 4586 4587 4588 4589 
4590 4591 4592 4593 4594 4595 4596 4597 4598 
4599 4600 4601 4602 4603 4604 4605 4606 4607 
4608 4609 4610 4611 4612 4613 4614 4615 4616 
4617 4618 4619 4620 4621 4622 4623 4624 4625 
4626 4627 4628 4629 4630 4631 4632 4633 4634 
4635 4636 4637 4638 4639 4640 4641 4642 4643 
4644 4645 4646 4647 4648 4649 4650 4651 4652 
4653 4654 4655 4656 4657 4658 4659 4660 4661 
4662 4663 4664 4665 4666 4667 4668 4669 4670 
4671 4672 4673 4674 4675 4676 4677 4678 4679 
4680 4681 4682 4683 4684 4685 4686 4687 4688 
4689 4690 4691 4692 4693 4694 4695 4696 4697 
4698 4699 4700 4701 4702 4703 4704 4705 4706 
4707 4708 4709 4710 4711 4712 4713 4714 4715 
4716 4717 4718 4719 4720 4721 4722 4723 4724 
4725 4726 4727 4728 4729 4730 4731 4732 4733 
4734 4735 4736 4737 4738 4739 4740 4741 4742 
4743 4744 4745 4746 4747 4748 4749 4750 4751 
4752 4753 4754 4755 4756 4757 4758 4759 4760 
4761 4762 4763 4764 4765 4766 4767 4768 4769 
4770 4771 4772 4773 4774 4775 4776 4777 4778 
4779 4780 4781 4782 4783 4784 4785 4786 4787 
4788 4789 4790 4791 4792 4793 4794 4795 4796 
4797 4798 4799 4800 4801 4802 4803 4804 4805 
4806 4807 4808 4809 4810 4811 4812 4813 4814 
4815 4816 4817 4818 4819 4820 4821 4822 4823 
4824 4825 4826 4827 4828 4829 4830 4831 4832 
4833 4834 4835 4836 4837 4838 4839 4840 4841 
4842 4843 4844 4845 4846 4847 4848 4849 4850 
4851 4852 4853 4854 4855 4856 4857 4858 4859 
4860 4861 4862 4863 4864 4865 4866 4867 4868 
4869 4870 4871 4872 4873 4874 4875 4876 4877 
4878 4879 4880 4881 4882 4883 4884 4885 4886 
4887 4888 4889 4890 4891 4892 4893 4894 4895 
4896 4897 4898 4899 4900 4901 4902 4903 4904 
4905 4906 4907 4908 4909 4910 4911 4912 4913 
4914 4915 4916 4917 4918 4919 4920 4921 4922 
4923 4924 4925 4926 4927 4928 4929 4930 4931 
4932 4933 4934 4935 4936 4937 4938 4939 4940 
4941 4942 4943 4944 4945 4946 4947 4948 4949 
4950 4951 4952 4953 4954 4955 4956 4957 4958 
4959 4960 4961 4962 4963 4964 4965 4966 4967 
4968 4969 4970 4971 4972 4973 4974 4975 4976 
4977 4978 4979 4980 4981 4982 4983 4984 4985 
4986 4987 4988 4989 4990 4991 4992 4993 4994 
4995 4996 4997 4998 4999 5000 5001 5002 5003 
5004 5005 5006 5007 5008 5009 5010 5011 5012 
5013 5014 5015 5016 5017 5018 5019 5020 5021 
5022 5023 5024 5025 5026 5027 5028 5029 5030 
5031 5032 5033 5034 5035 5036 5037 5038 5039 
5040 5041 5042 5043 5044 5045 5046 5047 5048 
5049 5050 5051 5052 5053 5054 5055 5056 5057 
5058 5059 5060 5061 5062 5063 5064 5065 5066 
5067 5068 5069 5070 5071 5072 5073 5074 5075 
5076 5077 5078 5079 5080 5081 5082 5083 5084 
5085 5086 5087 5088 5089 5090 5091 5092 5093 
5094 5095 5096 5097 5098 5099 5100 5101 5102 
5103 5104 5105 5106 5107 5108 5109 5110 5111 
5112 5113 5114 5115 5116 5117 5118 5119 5120 
5121 5122 5123 5124 5125 5126 5127 5128 5129 
5130 5131 5132 5133 5134 5135 5136 5137 5138 
5139 5140 5141 5142 5143 5144 5145 5146 5147 
5148 5149 5150 5151 5152 5153 5154 5155 5156 
5157 5158 5159 5160 5161 5162 5163 5164 5165 
5166 5167 5168 5169 5170 5171 5172 5173 5174 
5175 5176 5177 5178 5179 5180 5181 5182 5183 
5184 5185 5186 5187 5188 5189 5190 5191 5192 
5193 5194 5195 5196 5197 5198 5199 5200 5201 
5202 5203 5204 5205 5206 5207 5208 5209 5210 
5211 5212 5213 5214 5215 5216 5217 5218 5219 
5220 5221 5222 5223 5224 5225 5226 5227 5228 
5229 5230 5231 5232 5233 5234 5235 5236 5237 
5238 5239 5240 5241 5242 5243 5244 5245 5246 
5247 5248 5249 5250 5251 5252 5253 5254 5255 
5256 5257 5258 5259 5260 5261 5262 5263 5264 
5265 5266 5267 5268 5269 5270 5271 5272 5273 
5274 5275 5276 5277 5278 5279 5280 5281 5282 
5283 5284 5285 5286 5287 5288 5289 5290 5291 
5292 5293 5294 5295 5296 5297 5298 5299 5300 
5301 5302 5303 5304 5305 5306 5307 5308 5309 
5310 5311 5312 5313 5314 5315 5316 5317 5318 
5319 5320 5321 5322 5323 5324 5325 5326 5327 
5328 5329 5330 5331 5332 5333 5334 5335 5336 
5337 5338 5339 5340 5341 5342 5343 5344 5345 
5346 5347 5348 5349 5350 5351 5352 5353 5354 
5355 5356 5357 5358 5359 5360 5361 5362 5363 
5364 5365 5366 5367 5368 5369 5370 5371 5372 
5373 5374 5375 5376 5377 5378 5379 5380 5381 
5382 5383 5384 5385 5386 5387 5388 5389 5390 
5391 5392 5393 5394 5395 5396 5397 5398 5399 
5400 5401 5402 5403 5404 5405 5406 5407 5408 
5409 5410 5411 5412 5413 5414 5415 5416 5417 
5418 5419 5420 5421 5422 5423 5424 5425 5426 
5427 5428 5429 5430 5431 5432 5433 5434 5435 
5436 5437 5438 5439 5440 5441 5442 5443 5444 
5445 5446 5447 5448 5449 5450 5451 5452 5453 
5454 5455 5456 5457 5458 5459 5460 5461 5462 
5463 5464 5465 5466 5467 5468 5469 5470 5471 
5472 5473 5474 5475 5476 5477 5478 5479 5480 
5481 5482 5483 5484 5485 5486 5487 5488 5489 
5490 5491 5492 5493 5494 5495 5496 5497 5498 
5499 5500 5501 5502 5503 5504 5505 5506 5507 
5508 5509 5510 5511 5512 5513 5514 5515 5516 
5517 5518 5519 5520 5521 5522 5523 5524 5525 
5526 5527 5528 5529 5530 5531 5532 5533 5534 
5535 5536 5537 5538 5539 5540 5541 5542 5543 
5544 5545 5546 5547 5548 5549 5550 5551 5552 
5553 5554 5555 5556 5557 5558 5559 5560 5561 
5562 5563 5564 5565 5566 5567 5568 5569 5570 
5571 5572 5573 5574 5575 5576 5577 5578 5579 
5580 5581 5582 5583 5584 5585 5586 5587 5588 
5589 5590 5591 5592 5593 5594 5595 5596 5597 
5598 5599 5600 5601 5602 5603 5604 5605 5606 
5607 5608 5609 5610 5611 5612 5613 5614 5615 
5616 5617 5618 5619 5620 5621 5622 5623 5624 
5625 5626 5627 5628 5629 5630 5631 5632 5633 
5634 5635 5636 5637 5638 5639 5640 5641 5642 
5643 5644 5645 5646 5647 5648 5649 5650 5651 
5652 5653 5654 5655 5656 5657 5658 5659 5660 
5661 5662 5663 5664 5665 5666 5667 5668 5669 
5670 5671 5672 5673 5674 5675 5676 5677 5678 
5679 5680 5681 5682 5683 5684 5685 5686 5687 
5688 5689 5690 5691 5692 5693 5694 5695 5696 
5697 5698 5699 5700 5701 5702 5703 5704 5705 
5706 5707 5708 5709 5710 5711 5712 5713 5714 
5715 5716 5717 5718 5719 5720 5721 5722 5723 
5724 5725 5726 5727 5728 5729 5730 5731 5732 
5733 5734 5735 5736 5737 5738 5739 5740 5741 
5742 5743 5744 5745 5746 5747 5748 5749 5750 
5751 5752 5753 5754 5755 5756 5757 5758 5759 
5760 5761 5762 5763 5764 5765 5766 5767 5768 
5769 5770 5771 5772 5773 5774 5775 5776 5777 
5778 5779 5780 5781 5782 5783 5784 5785 5786 
5787 5788 5789 5790 5791 5792 5793 5794 5795 
5796 5797 5798 5799 5800 5801 5802 5803 5804 
5805 5806 5807 5808 5809 5810 5811 5812 5813 
5814 5815 5816 5817 5818 5819 5820 5821 5822 
5823 5824 5825 5826 5827 5828 5829 5830 5831 
5832 5833 5834 5835 5836 5837 5838 5839 5840 
5841 5842 5843 5844 5845 5846 5847 5848 5849 
5850 5851 5852 5853 5854 5855 5856 5857 5858 
5859 5860 5861 5862 5863 5864 5865 5866 5867 
5868 5869 5870 5871 5872 5873 5874 5875 5876 
5877 5878 5879 5880 5881 5882 5883 5884 5885 
5886 5887 5888 5889 5890 5891 5892 5893 5894 
5895 5896 5897 5898 5899 5900 5901 5902 5903 
5904 5905 5906 5907 5908 5909 5910 5911 5912 
5913 5914 5915 5916 5917 5918 5919 5920 5921 
5922 5923 5924 5925 5926 5927 5928 5929 5930 
5931 5932 5933 5934 5935 5936 5937 5938 5939 
5940 5941 5942 5943 5944 5945 5946 5947 5948 
5949 5950 5951 5952 5953 5954 5955 5956 5957 
5958 5959 5960 5961 5962 5963 5964 5965 5966 
5967 5968 5969 5970 5971 5972 5973 5974 5975 
5976 5977 5978 5979 5980 5981 5982 5983 5984 
5985 5986 5987 5988 5989 5990 5991 5992 5993 
5994 5995 5996 5997 5998 5999 6000 6001 6002 
6003 6004 6005 6006 6007 6008 6009 6010 6011 
6012 6013 6014 6015 6016 6017 6018 6019 6020 
6021 6022 6023 6024 6025 6026 6027 6028 6029 
6030 6031 6032 6033 6034 6035 6036 6037 6038 
6039 6040 6041 6042 6043 6044 6045 6046 6047 
6048 6049 6050 6051 6052 6053 6054 6055 6056 
6057 6058 6059 6060 6061 6062 6063 6064 6065 
6066 6067 6068 6069 6070 6071 6072 6073 6074 
6075 6076 6077 6078 6079 6080 6081 6082 6083 
6084 6085 6086 6087 6088 6089 6090 6091 6092 
6093 6094 6095 6096 6097 6098 6099 6100 6101 

CELL_DATA 2034
FIELD FieldData 2
normal_stress_average 1 2034 double
403.26709559 828.69141841 274.1950789 781.47631053 421.97365081 976.40483998 99.388656971 543.31141301 448.37199085 
199.00421815 938.4075108 394.65416197 471.46489688 508.17615212 107.49422972 437.69973033 867.9451393 221.10784895 
163.69455988 224.15818204 467.99290535 734.68288074 663.49749936 441.89627193 273.52729739 283.75127304 245.84411816 
236.1979767 158.49092421 291.74334983 239.25358281 706.99662554 798.25184158 254.42837431 295.4286358 428.9900951 
256.01064993 431.08888305 306.20508033 774.53209101 984.60086182 268.63241558 482.31455479 386.71395109 287.51354958 
91.685617691 244.06280084 269.42160799 249.04421467 544.48033263 409.12861362 737.93544996 797.00332494 287.97955183 
362.51590102 274.16386869 451.52467586 276.27357986 1002.5362417 353.64553167 109.13190939 533.10884986 470.10198736 
323.46843218 251.20488693 385.06589123 738.39865089 303.99529074 242.48348395 431.46024033 653.89436716 730.42025398 
238.6320791 943.81075329 540.83892159 134.91190691 528.44572133 411.81704974 289.8949303 429.60565495 477.31336656 
427.19328107 573.39101743 809.31370339 200.31623553 170.15675334 347.00891174 291.35616592 361.16737924 300.02052233 
371.649277 425.77522079 420.41830706 271.53580224 293.33728763 447.26964296 248.14627255 202.51099211 436.68527139 
497.16896755 248.4862469 276.60445885 301.81535017 463.87512553 261.81489781 531.46497716 270.86374769 257.9635687 
308.18886307 517.3600034 751.9366433 409.35919372 241.4756355 469.20183592 285.50714613 392.80686807 353.27411569 
204.22809062 345.42934672 239.61022212 358.45686927 251.43685589 192.59962981 511.68761137 340.4267797 929.11795911 
342.16957589 271.65307369 351.72013319 355.58897392 428.17839906 275.30344997 422.29415874 155.85676935 373.97009033 
645.45490986 140.94642743 317.87114158 346.21131459 141.54751253 427.20442446 397.05557626 275.06949624 220.63228971 
305.10787505 503.52760632 301.04610461 282.69426598 163.19035115 268.54686574 333.31688568 332.8393759 288.89347783 
512.32296914 533.23690975 86.235479963 245.22363886 263.08152241 449.57262196 559.87322364 847.6927652 154.97414888 
270.73523607 676.8118814 153.31026346 137.38786036 581.0291766 978.8787701 102.3272412 325.88107762 235.83402472 
441.46797122 664.41437909 661.80400118 481.30339755 250.54905002 469.15053593 261.11244228 349.71821259 321.05623397 
885.3246623 686.07173427 347.86450011 315.23830635 154.49546071 304.40955407 471.7180492 682.46411942 161.4726415 
275.98981507 199.84661426 273.33507873 218.13926873 294.63301507 375.29909888 182.01592818 284.49440923 306.1894241 
371.29663145 608.81351758 347.46364608 321.01475265 1541.2747267 868.87864295 356.31517978 467.59147709 491.34620045 
289.57988705 813.53450287 150.45842163 1397.469716 637.6215159 474.74262869 666.64019407 498.36197087 951.57847221 
653.69458945 130.5317895 231.37171902 432.07462106 147.48885537 717.5475809 144.45607675 741.35834434 286.57262186 
528.60646803 191.86141946 823.27409066 847.86981749 448.68910014 219.66834662 484.3752569 465.70290119 513.18746282 
926.59144206 266.97981087 709.370774 814.09222528 240.3275853 177.23501726 277.69217752 1024.5216892 851.37513877 
167.23389548 192.51175437 371.43396173 112.06803964 359.38296419 340.15120116 232.37045583 342.9355434 124.24978068 
288.30465692 218.64984048 849.40489872 278.69351557 920.02857599 546.11821182 735.22299523 230.86753244 293.53041595 
250.59270291 226.01554934 421.71114032 770.15997071 222.09639958 602.59134141 500.89968057 323.30028372 602.42715622 
260.56184508 647.27775995 568.5233426 383.92945944 856.00087653 309.82849875 435.55726298 369.04377638 840.84273912 
434.70456763 437.08604681 491.53866368 743.13103724 565.62021385 348.40997416 353.77474634 391.62146077 240.332644 
174.8441957 368.57576723 870.71005437 416.28960267 364.0997963 530.94600939 685.17882523 301.61519434 602.18580638 
354.45873707 605.82878163 111.74410591 187.31544634 317.8957134 274.13406257 355.72490756 632.83890982 575.50334 
1031.5634698 387.62204392 387.21942373 307.70416882 799.45320459 746.40528974 473.0237975 597.04707818 149.16847089 
1168.120878 839.81826273 983.97082539 687.51476317 144.570547 811.33138447 552.29726229 651.13912336 445.35150883 
282.0652114 985.05810578 589.22280251 330.55081437 322.10511343 859.25726617 600.90287805 780.8507198 776.47542351 
388.75974653 323.16709711 856.29455029 151.35780208 590.04970106 530.99488707 493.3516183 146.63072713 711.74022032 
800.68695963 110.78536466 168.42809689 185.17761887 676.23963551 774.08550838 746.28632149 351.68572947 268.38935582 
339.17838632 1024.2044164 360.21457585 265.60133759 301.18469658 904.1569313 459.38450484 757.67660964 349.70452241 
808.21877946 316.49087063 134.46803894 663.4389747 199.79935319 272.1216319 216.97794318 290.97839632 778.13933129 
508.48275775 305.00939722 274.55566455 346.21829334 243.07264115 337.24658777 580.62721231 466.52519528 494.583467 
721.26005268 364.23144245 292.94167228 226.47249051 395.36806582 461.70745178 433.06947309 302.47450079 606.50207265 
332.23946183 326.21236195 507.43868097 242.56779298 284.51296032 191.47978902 724.08202817 216.73588941 570.17636429 
521.64862556 342.68173881 180.65787981 351.01048129 172.96474095 305.24468941 230.55995318 270.98707337 137.32974238 
449.32180107 376.45536611 276.28879831 456.3897549 966.84776237 457.65820183 482.47852387 535.99896742 578.9760676 
653.21770624 416.171258 120.91626954 545.52170573 543.72940843 1081.6936838 182.81689087 344.88469524 772.73409475 
799.38650122 823.24398296 766.10213125 297.09068684 275.38717719 606.20026003 510.88757489 427.508096 181.09437339 
434.23637317 722.57091346 661.28283022 344.20164178 470.38054192 495.14137648 1100.8869643 225.25603354 202.58272276 
96.379092271 131.86331666 1108.7154556 450.52523876 253.61678079 827.05544302 101.11093482 279.20676305 652.31317918 
79.882809658 457.38265071 671.39836793 347.85048363 484.22200135 467.07202613 169.18074872 570.12617063 964.55635743 
360.31007435 708.98964841 751.73689512 411.23935274 848.78180025 522.63871582 689.53351004 413.61328777 97.235325239 
512.59609033 435.8463737 584.91031139 916.20624151 268.1624384 1273.3028561 292.05606652 190.00636906 638.46647657 
1054.1498322 372.43845194 352.69115987 196.57468741 756.85359626 1060.12318 595.25715144 540.95895501 812.15557292 
968.59247401 638.07635313 496.61005096 634.59100876 275.24690091 282.89782815 823.4394456 878.78606857 427.12602736 
582.89442868 396.13991002 173.87510415 983.63335752 653.07278075 405.35202201 533.75025151 313.93428814 374.70251357 
325.78648183 275.94452134 463.18373941 288.46466419 126.20698044 187.23049173 251.14031247 159.1033377 194.00856813 
91.279429812 327.44097706 331.27265285 139.28978612 623.08443961 474.59487842 213.07169518 261.96904354 189.76926072 
793.33097509 182.06549389 123.48454745 173.56017232 197.92876311 323.16553496 745.27562577 169.52852158 161.25517062 
117.22690889 312.73747486 314.7632526 151.07903996 318.45003299 471.55279632 202.57272822 371.97890821 585.22846782 
526.6468746 161.13168612 160.82231906 477.46862888 456.7917441 180.95643057 224.08229949 201.18105455 480.32980876 
340.22776486 431.10258242 192.62682476 344.09251326 205.65534353 421.56562472 510.96439446 394.07136032 389.08248606 
287.39859699 275.00103367 298.61242091 348.11286555 168.29486357 13.568289913 706.03722772 24.300898389 379.7954999 
129.84088718 233.03682648 597.26722955 362.88639709 521.9149355 298.05554466 348.69206238 611.27197166 529.13885627 
151.95573335 187.99571949 396.24848004 405.84314121 798.76838788 442.62071098 372.48267131 374.14632032 110.03615271 
386.70114692 241.77473958 255.78050876 202.98137678 185.32652073 304.17677485 136.8378489 186.91588051 396.40399348 
597.0723123 133.2731127 209.7332252 178.29888723 589.60765711 289.35504303 209.02275067 282.22613953 201.71335515 
603.58183347 310.42146101 442.24411319 362.89770956 251.25189741 229.86754759 218.4502043 520.58134668 333.7107971 
268.19782717 474.04321576 270.24203644 355.23477303 129.60421183 271.96729772 382.10788944 363.76061361 35.244087355 
454.72207867 201.85778467 369.91914118 276.72246286 146.22138511 378.1365758 513.82776421 306.63085974 225.52677784 
143.8938884 258.4905727 401.16996399 164.16520779 295.93570789 215.85904807 249.50658418 200.32340312 113.25821193 
296.19731541 166.67842728 267.06603256 305.86667798 322.06716463 363.57052687 121.86693868 577.43496742 44.827703095 
368.85633253 96.43406663 306.22508018 369.87215123 409.71715847 455.69432965 205.34308066 255.52308823 350.54947073 
289.78285119 504.42702151 264.61744468 155.58135306 396.38449078 332.93733837 408.71328052 107.59641536 278.11237355 
438.28663735 587.79836773 588.87883321 350.412238 104.17012158 275.49718456 355.04679153 233.1242398 118.26682486 
356.14281948 207.49996356 264.94731276 193.06072665 316.7172316 273.47341337 251.13258751 440.64291555 194.09467054 
280.01933924 303.48892922 145.01434204 72.05940489 124.33972197 59.512913747 79.835014842 249.68593963 241.99405833 
258.72227882 131.31974323 479.30133951 252.80241504 251.18270519 74.705882496 272.55621279 291.96356157 88.572604199 
96.174947761 208.40599778 154.58169462 315.96193623 145.13110874 202.63936692 217.93898012 441.92036597 232.08791439 
154.87089411 279.97567064 135.06811203 261.45136087 220.60330009 150.11314185 224.67369035 208.37188753 230.84191405 
145.43025846 415.09957801 122.25266365 0 94.068802108 0 301.49208591 0 412.77501595 
264.52992641 113.70267432 310.65400252 0 211.82726319 151.6652306 0 250.30393944 0 
0 135.82267087 195.06150292 0 174.5607276 0 0 352.34977414 0 
425.03414549 0 212.44381025 169.84814232 186.39764092 168.96547452 0 -0 0 
0 169.3552974 253.67556886 305.55281053 0 0 0 181.73984744 328.44536185 
82.409566868 231.25990834 240.15365363 0 345.34698269 129.16655478 140.40481947 218.87141007 0 
0 352.28945266 375.58610617 158.58726038 63.970786043 275.40255022 0 323.57791221 0 
49.900883082 281.23388143 0 0 0 243.38599861 348.92224455 284.65315321 342.74481945 
341.5384123 0 185.81262212 1.5812323303 59.456475806 246.59844301 61.267853093 0 69.079483596 
85.872997158 115.73266456 148.19293086 15.26496732 0 0 0 196.07083855 179.88430531 
204.41817649 0 0 0.86496362687 0 75.138896879 -0 -0 132.20687868 
102.58810694 0 129.42561719 161.53730506 0 45.684400261 98.518158289 0.7607288032 8.4066081316 
148.39274829 157.29669754 0 20.062969689 0 0 81.396936842 16.829989654 138.59643388 
344.81787923 191.98409131 0 0 0.94452540704 0.50326564723 0 0 100.32939207 
11.14474418 167.76552586 0 0 0 0 112.66179238 5.5092182918 146.01019268 
0 0 102.805361 145.39670916 143.00082245 2.5268451691 0 0 43.761484707 
277.702089 82.514117108 124.90721928 282.24124282 159.30722937 96.242643052 0 0 0 
66.942536663 63.285664185 239.93820035 124.48504633 146.48097929 1.7046339724 98.650713496 121.47691029 340.03203048 
95.536869787 341.98402052 392.177003 159.56434747 145.27170349 148.97053068 205.6458329 127.42578919 66.625171333 
44.326446731 86.390783454 179.05806731 188.55802492 143.43221547 199.64528392 10.513219062 0 32.048060409 
180.07765131 1.4367114859 447.69962605 216.62501445 178.02694382 0 129.23442759 41.517983755 0 
151.23318964 139.23375345 10.466078566 154.41486367 202.28408252 89.690912262 22.469445436 57.135479678 290.39459979 
74.513221537 179.87712382 252.82320976 278.56322209 0 0 146.3625498 112.27804405 151.60249708 
0 46.761391391 220.44640537 41.334480855 49.343510834 227.85720456 49.652132061 6.3496535958 103.50649247 
306.55311885 173.2126443 86.581737915 242.39784439 80.677428388 216.97565391 73.608205467 287.52793469 216.42315204 
254.32235996 254.27247336 28.691260847 31.967279335 173.51117532 85.813291408 135.86775823 351.20516439 18.195101123 
120.36557039 52.929426003 181.19003987 0 78.215536556 367.52214939 2.2520719258 8.5648920645 243.68523247 
149.14713805 29.731691 0 87.642421877 0 205.98739082 225.6559675 33.387003471 265.67629361 
388.92061767 99.94238734 77.768700709 89.221906031 107.03906716 69.76811962 60.525671332 166.3470323 61.104196834 
247.04763121 128.84867122 256.16574986 192.42369772 13.580029452 4.079431531 -0 91.137303262 209.4928523 
50.94788906 186.237986 149.45493322 5.8324471198 120.97378521 27.119372607 94.761542917 202.94890729 78.051937959 
153.7223042 117.54244393 120.62961261 45.99348103 95.040092754 219.2996388 54.842084904 203.95784819 205.27983983 
63.717330454 76.733749566 174.53750713 171.72664182 401.57451828 135.07563323 46.102806576 61.285542895 125.35993105 
262.53820529 16.754095949 56.408010027 127.5525792 93.370094093 25.291212719 298.23644747 0 107.71989216 
316.7595531 149.68873339 0 197.50796601 328.36830865 140.44843749 286.61257616 13.623965039 346.31039742 
207.90421238 26.678636379 66.773919591 302.42355696 243.5192006 188.22138231 159.7965107 196.7314877 116.31262002 
35.317044519 22.081460833 165.23255647 62.115551634 187.97077486 123.68052964 67.135600098 166.4221429 0.13670178598 
103.83831722 196.21180935 195.40720506 7.3182735678 403.34473835 38.624114581 162.16784359 94.822161891 0 
172.15771059 206.77490176 54.473716026 95.080641723 77.667192374 18.316923666 163.05489135 163.90175189 274.86212846 
157.44971581 164.2353754 -0 205.68451093 237.37475966 -0 -0 298.34459922 374.84273795 
49.608163187 44.559092406 44.601021897 0 292.30909759 239.58623274 316.75064629 168.56440618 217.65507491 
176.93600572 14.885778731 135.6976355 0 278.82504725 125.57325141 91.481119967 356.35388574 131.57764962 
148.93571712 129.16682107 83.093039075 178.14303805 56.921355853 117.01519991 18.717557179 288.16410145 94.628627351 
388.61598086 220.82993875 269.31438546 89.759015491 12.478425809 178.67368165 39.474418283 0 124.84012187 
186.60879634 177.73658637 297.5183148 0 302.57639314 62.541385943 34.258819363 45.273874462 46.085574236 
63.244159638 132.20976051 11.991275908 55.388088535 12.606435496 139.54081111 77.110310414 121.39437678 263.59644362 
64.173203572 128.29740749 67.218963565 178.58970183 0 91.710753704 217.31069632 80.126805294 115.55703606 
146.15726468 22.429122804 157.3028397 67.144314459 152.45957943 54.440635996 103.1464855 12.845471838 146.37432431 
301.63714694 208.25518529 234.42852821 178.15833836 46.466618014 211.46275741 128.57695579 68.074839646 102.01009178 
219.81304242 71.626402 290.06681837 0 114.64865626 135.99616846 0 26.42264338 148.49151592 
139.79466558 37.132820934 -0 292.62457959 83.899758566 151.08332755 72.470426689 158.34992714 27.544043902 
6.5291061074 204.20950838 56.014704699 97.418404497 21.790973716 140.73666108 87.658072212 205.6073725 22.770210833 
186.04602084 65.169571578 -0 51.925533275 223.81617576 31.888092608 53.941904074 81.132860779 9.6346634604 
229.4194598 220.42800429 212.79419963 105.51056593 0.61952779329 196.59561003 263.73648371 28.459766451 116.32298703 
155.48272676 375.14524036 268.78250177 215.74037662 217.61559356 109.92266082 218.7298632 208.37651087 69.474194328 
4.3771861886 128.52957791 55.701419459 195.61866253 89.567446132 226.55213659 208.30821615 57.003552468 75.719552282 
140.0077941 47.563576598 237.70918229 131.30402707 153.77260847 160.10536568 0 62.434332365 41.620766508 
98.950188196 147.13083724 148.8568823 48.357165916 463.67590103 120.72261877 21.254197203 156.19241788 183.44030013 
-0 244.58426763 169.08064058 138.12230535 205.06881323 179.66986016 179.30800648 198.88610396 135.32876848 
117.16987935 57.54429061 69.477524158 327.2312402 74.976636731 51.073792788 313.25616525 32.888389338 73.065076482 
354.93281242 356.09069279 143.4937985 84.370127539 36.628182511 74.131469224 60.384822469 244.02381379 78.73307053 
115.57058374 0.24842615687 70.112248957 238.14346502 200.47714118 126.45002347 0 158.93895892 302.80994172 
243.96111159 61.488695973 116.72570218 114.93290345 67.987046918 228.39275257 160.81161011 0 256.3586667 
352.13230568 54.370297448 232.56617976 11.454046642 140.81493345 164.94306486 68.435158412 185.83282759 113.68127456 
180.52346536 260.08542322 248.91711971 158.25216538 200.99855186 202.72520062 172.24795066 162.63534883 226.96674049 
133.19789805 209.80073608 11.516205631 216.96589963 109.56288326 127.54667781 82.05144178 45.289964467 190.71135278 
96.694155707 22.245833825 237.61032621 112.58420881 31.101165967 97.953863986 183.90317407 60.457874479 254.64668417 
259.46995005 48.765681701 58.15345815 27.826099816 125.77917881 333.32500122 171.59104459 239.40749091 81.934939093 
90.755950624 245.28239117 141.72216803 183.83929387 232.6195652 0 184.90438293 73.392260323 256.39783332 
159.64379866 325.16735629 135.83238756 0.62375950777 76.920465949 -0 194.81671692 191.9840551 85.777092084 
206.05980325 291.18273458 53.149493442 243.09822983 260.97709635 106.76354056 72.339458415 72.721553912 128.65110035 
148.70600346 44.61096004 30.822009621 40.271455886 170.18978956 34.565689092 62.364384213 111.3290022 17.841910587 
183.63748585 134.52984895 90.676534267 64.867196155 291.77781178 163.5416964 193.37821735 157.06469163 270.99104347 
139.0707539 0 104.00603134 0 0 248.16419606 119.73342392 182.80305883 124.07342696 
200.50909755 148.59532012 135.66406982 0 0.74850971174 287.38339329 468.39005598 139.73365784 3.3526478569 
69.152600224 292.10905778 221.85375455 95.74310252 18.462014601 323.83851386 258.67224808 15.680940835 120.77245555 
220.20389755 146.25326287 0 144.81538374 169.17325414 109.67790316 239.45541139 19.027284112 0 
425.85425242 0 271.11454321 207.52279359 0 18.300058482 145.72678174 240.88972874 66.718694636 
346.64046429 19.031663437 78.442723875 217.86246699 0 125.15751811 237.94093738 0 157.28814384 
-0 96.668854037 81.37066274 191.407939 170.53685522 199.95914458 90.665619086 147.26832621 112.59694736 
181.20292014 201.28387183 -0 217.20103994 48.160344698 220.48867994 52.885165147 50.801458889 41.043008229 
73.395515102 170.56849764 322.32678937 0 46.739412434 117.54706454 0 108.94128038 -0 
123.59880075 0 108.56144559 116.88261562 0 129.64361098 0 66.572827975 158.51491461 
-0 164.36062101 -0 248.80794778 0 54.927479184 69.106904422 101.33245476 31.580787265 
205.99050128 95.604536702 0 -0 0 127.81185654 0 -0 0 
411.34562042 0 185.45371394 114.49063177 0 -0 286.47544856 238.23406576 0 
27.625781425 85.803558801 27.535522228 0 157.22051124 374.313967 54.807918718 118.99430029 110.69554445 
0 0 63.659383544 0 229.98167705 65.321138528 6.3237430978 14.911972245 -0 
225.39819982 0 167.91034862 67.116931416 120.43065495 243.23674333 195.7441721 17.245723111 16.857270066 
0 182.28827682 256.17537365 124.23746244 -0 0 283.849706 -0 93.602203791 
0 296.18708595 0 105.82964821 30.018913761 312.13002798 211.38362524 126.51012696 26.561166286 
337.77115095 204.51475862 253.46213212 18.055241987 236.62002345 53.825093166 0 20.281208008 231.08727937 
0 89.936358331 0 -0 0 285.92756236 248.83453475 0 105.39769225 
68.988231238 280.79707793 40.796813654 231.62334875 80.713724299 117.60214965 179.65060092 0 183.06657546 
0 104.51137917 131.03459191 267.41857033 104.22375023 125.0692873 158.06060037 313.53357248 118.36575025 
2.1227089387 187.68171598 -0 55.050420473 281.70709748 -0 297.55913173 195.88468603 0 
86.971329213 177.1586336 116.19776451 0 173.48386081 216.62036229 51.654907902 190.14991402 222.47853754 
194.88242964 108.62646924 0 0 111.86631683 141.0970287 0 243.62173186 219.1250144 
124.22815329 278.43883094 0 344.54331285 1.9508750256 225.76211253 41.280176585 107.3465247 69.431333091 
125.14171451 0 139.22197728 301.86775898 60.988440559 122.1256188 318.53834607 0 123.22167495 
0 104.81418391 231.9275281 168.39622463 -0 263.04829683 367.86195791 17.790357361 188.25651275 
167.73125685 150.62576247 180.97732573 -0 3.2728627963 88.697859536 43.041766854 89.984399932 316.30441994 
9.4113045359 78.117720019 146.97573417 304.81611736 45.708651464 209.56772951 80.445897688 128.98977474 20.360617358 
310.32822669 279.68550879 217.54843665 143.47018494 0 347.75994259 78.127958236 42.906574016 173.21791186 
226.12246878 128.22358283 139.16064628 29.565602914 71.118627736 47.4184547 168.41396529 360.50543974 14.898368356 
171.96990882 112.68876268 46.414779623 113.54007953 163.47912269 185.87717801 78.23625734 283.94135644 151.82034661 
154.26019519 57.34867054 0 33.930767428 177.10416026 90.966563408 188.32239729 75.579457956 138.55001085 
287.84124737 151.13913729 200.88901652 105.99818392 -0 0 0 0 0 
-0 0 0 -0 0 179.10851924 0 0 0 
0 0 0 0 84.478018 0 0 0 0 
0 0 52.94762018 0 0 0 71.639910521 0 0 
53.978815016 0 0 210.59824178 152.97696287 0 242.48389632 0 0 
96.157908373 0 223.36973658 0 0 131.77204122 0 0 269.53546967 
0 0 0 23.605004745 0 0 0 0 0 
0 0 0 0 0 0 0 0 240.78999168 
0 0 0 0 0 0 0 61.683285296 0 
0 0 0 0 0 0 0 0 0 
218.19930951 0 0 0 0 0 0 0 155.79865855 
0 0 0 0 0 0 0 0 0 
0 0 0 0 0 0 0 0 0 
0 0 82.755576356 0 0 0 0 0 0 
0 0 0 0 0 0 0 0 0 
0 0 0 0 0 0 0 0 0 
0 0 187.65540882 0 0 0 0 0 0 
0 0 0 0 0 0 0 0 0 
0 0 0 0 0 0 0 0 0 
0 0 0 0 0 0 0 0 0 
0 0 0 0 0 0 0 0 0 
162.11422901 0 18.185221571 56.214795492 0 0 0 0 0 
0 0 0 0 0 0 0 0 0 
0 0 0 0 0 0 0 0 0 
0 0 0 0 0 0 0 0 0 
0 0 0 0 0 0 0 0 0 
0 0 0 0 0 0 0 0 0 
0 0 0 0 0 0 0 244.12382083 0 
0 79.477343727 0 0 92.727220529 0 0 0 0 
0 0 0 0 0 0 0 0 0 
0 0 0 218.18740448 0 0 0 0 0 
0 0 0 0 0 0 0 0 0 
0 0 0 0 0 0 0 0 0 
0 0 0 0 0 0 0 0 0 
0 0 0 0 0 0 0 0 0 
0 0 0 0 0 0 0 0 0 
0 0 0 0 0 0 0 0 0 
0 0 0 0 0 0 0 0 0 
0 0 0 0 0 0 0 0 0 

shear_stress_average 1 2034 double
26.611412809 66.664184626 20.132095101 80.042274806 10.67120783 79.541202674 28.263405855 54.288493009 40.915766733 
77.486978179 64.235761649 24.18492941 131.61297603 125.1087978 12.090065226 74.665981508 125.6215366 37.818069554 
33.456901921 61.217838385 77.890911205 91.729497973 100.23690763 112.91424383 56.775431768 56.531239989 76.08016111 
5.9006514339 43.443183352 20.261428828 25.998883916 186.05145487 20.062920728 74.545750134 41.900444014 194.22664139 
67.167081014 43.918852516 36.6616974 103.59977492 325.98567649 6.783387099 40.788261486 93.009056796 17.2320432 
39.773733645 25.905292289 78.413565983 67.549227298 117.33254959 96.870995871 42.779907277 74.704095755 22.679333917 
39.160503853 67.032151528 195.36048103 46.809116196 77.780656806 98.35458392 23.399831206 40.778156108 115.1521536 
34.113551455 36.820529024 62.235090675 74.602418135 84.348186677 43.04350383 87.9029155 144.24772721 197.58746491 
37.254611769 121.93771637 98.535269192 40.989459137 61.094591034 77.684769479 49.49419508 119.49499022 59.353322172 
147.60657573 123.98691524 105.66416171 21.308027363 75.524819629 58.613019327 122.8893647 44.537294355 28.702251185 
121.3145578 58.203386391 13.960590761 100.75056157 98.720613447 32.894900865 48.204556023 16.383710265 142.54242295 
79.132488316 33.960487226 40.656301365 79.61015611 91.852183803 9.5055848602 119.66938241 49.320356746 107.89344165 
43.115302868 202.96831349 176.98920406 85.205430278 53.653999166 56.246440919 76.579903647 65.863954872 82.433096763 
88.133368754 15.742856867 41.080287739 50.684735781 40.926701134 23.330839271 96.417124888 28.779980432 168.44780165 
44.886638947 10.634530142 8.5034496496 49.476226605 75.22662957 37.402074725 222.59949772 22.268412421 108.36284458 
117.59349621 11.321496064 24.332698527 76.508934945 29.376619394 95.363815705 88.286709436 34.697634494 63.030676015 
52.454718799 112.63634711 45.690608383 77.151447654 16.901714879 18.862156668 31.94381037 40.484377366 39.816979117 
81.008669302 177.57896586 86.100024151 20.858109104 145.63375927 36.362806108 115.50525591 239.95321676 18.633179519 
64.877212317 170.83071202 33.902986509 21.235663866 116.27946095 264.43814446 25.778176299 64.807886929 87.695451401 
5.5635133642 68.139582684 62.140105599 187.23417597 28.165659494 94.205024352 44.382608085 46.609963414 32.852575522 
106.07261556 54.118125357 10.066552673 70.910079016 45.589792536 52.001285387 206.86376175 50.053358076 48.237804413 
23.87121126 43.125494318 69.161931531 45.197249884 107.35994584 48.258636778 25.367930063 53.833635015 67.915521468 
11.704330422 33.532989899 78.211849301 65.315594973 175.33173525 44.982992746 43.988247071 42.493189344 153.07728873 
48.784624346 114.40890336 17.164046679 206.94786788 114.51893461 150.69981501 52.271389363 69.382357288 106.69708136 
38.339160303 18.610103028 96.750278 95.655534968 29.262703318 63.435071697 16.61726645 120.91410936 60.218119938 
105.14456176 10.238405308 19.785961005 49.824042608 41.596886896 72.718164627 91.530587119 37.143709758 75.691075413 
214.87424634 52.065917015 47.178080992 84.967520774 22.563189399 42.5616732 37.544597061 84.319703022 123.73777139 
2.3230900732 59.346015426 127.95777635 26.880598436 54.058938505 59.3946234 48.000614234 36.756837658 19.283342027 
85.357694923 32.734416314 34.960901881 120.31462252 92.591594889 67.845866357 195.62914116 38.441380689 62.859378359 
35.155900502 81.081567691 75.355212877 139.33563252 15.226281809 45.222953541 22.118951241 17.768675073 117.95018257 
50.65519769 42.592200861 50.521915014 64.112152649 71.668764629 66.303058408 98.151822 51.096453026 17.883449826 
41.849662797 51.823105736 52.142730544 153.67310286 68.24678648 79.123404636 49.469837463 83.84204053 71.665049647 
158.12556782 120.71840753 95.08368447 110.84150157 17.166574441 65.781483218 21.700560097 36.659646181 106.90731619 
45.813431423 13.147485515 38.562265963 18.840283744 61.712395937 47.865609515 98.510848522 118.01986497 51.313953071 
198.60099768 101.31580186 136.04764809 28.789281421 57.52655593 88.360209335 13.440931916 29.991519126 24.986972882 
74.446407334 94.087830488 81.457072709 100.08968257 13.292341954 107.79725228 109.26200632 61.640879369 119.06631789 
35.835408589 29.846454498 75.281869271 29.758285311 65.172962787 20.067441512 107.9076727 38.177396178 33.361663562 
75.119455584 17.620268894 65.174248132 30.924806925 113.52931866 51.965946744 144.29799364 15.794784823 65.646222028 
44.902411335 26.927745159 29.14471099 36.157656704 33.823294292 6.585965757 149.89082385 52.597761874 32.68746366 
138.25875427 104.88706552 10.715756425 21.19014593 87.675271244 62.382803037 45.49983772 125.7927114 7.727122135 
120.87622835 113.03757669 14.505583756 12.877575919 41.597399566 20.584190368 39.172497821 58.69199634 75.663160613 
39.850024643 61.482421343 13.148879227 39.952450248 58.953551974 93.394187269 44.785139435 66.726826807 85.405519549 
62.341968841 102.0217359 36.432133783 32.730777535 66.925473908 77.055366702 47.07391514 84.962840501 35.524078562 
12.213777178 39.086896819 148.3128338 83.323500249 72.275767768 50.563303897 59.761219227 59.147882158 34.385148776 
18.774819957 74.164914164 61.890984933 196.00963312 16.18303097 17.820652896 32.193237042 19.951063977 47.193023246 
183.55472532 82.044091555 44.117112694 74.57385235 125.98734158 53.28673303 120.46496231 43.847407558 62.318788762 
145.58413518 102.93755494 16.834992791 127.57968624 70.128901002 39.864972775 32.352921647 52.759928271 157.39000602 
127.99395418 25.015314607 122.05083967 59.81122911 40.416634527 52.1420694 51.612294587 75.046806312 25.601312705 
136.74671611 78.567210124 86.198545911 35.810248285 88.010807255 89.907741795 150.31419026 22.168467484 28.170900311 
20.978062368 17.345650752 126.53903732 29.363122713 117.65527051 113.22721331 24.160724698 24.638513022 13.450418082 
21.820395873 58.569716453 101.54868092 103.54226121 39.52056725 66.323048968 10.943811399 40.069158168 109.32337714 
43.708741875 108.02777024 103.84224309 31.849996064 50.421969369 75.203294181 88.347030956 75.533994267 10.336963355 
113.0543956 41.646293159 111.62750301 164.21473829 28.604300485 176.03098813 16.108320231 26.516499469 59.517404824 
79.163317447 94.615746444 40.857317334 53.0734037 117.64085952 107.1176035 128.04245048 38.079614766 45.115513216 
176.78949031 13.958235541 46.709901055 91.786706046 67.408610574 46.135544644 49.822866406 150.20272365 46.53246059 
165.18215245 95.227385632 29.649165101 66.310137536 19.1562752 50.972655092 40.641466634 101.76944724 63.962809027 
54.398846678 64.110860997 76.592356875 77.809491594 24.039916822 73.057911415 48.21294476 48.028528612 8.5285502489 
36.065132227 51.899049579 27.149014374 47.391618424 40.055848859 132.15458418 66.323376341 69.981174764 93.985473577 
24.812892847 77.62402193 44.184053919 5.0709254113 36.023630793 65.084211328 112.31800057 48.22641932 10.766788233 
15.330983353 47.417914567 102.78015713 14.56133266 19.392504963 7.8213028397 26.024468856 66.879410362 107.36498995 
186.79663833 27.531976657 75.54466274 88.678792562 151.04132612 92.043845008 33.409873648 20.347933543 142.07038077 
44.432038636 60.101470379 49.363976756 52.113778448 43.521847642 93.432231493 48.898167535 71.274231703 96.794029519 
48.985817287 54.506139481 84.777528945 66.196008957 14.749634305 3.5586773943 58.381390626 5.4296808154 35.118245456 
11.76149335 58.988144224 94.971553971 125.71688734 135.58754213 113.61125592 90.471153958 36.238610874 143.30788564 
6.6889627901 39.722016116 114.24452914 60.813391164 114.20942485 67.279740176 75.949163797 98.163013689 60.588396107 
55.526784856 56.238287893 47.857184861 34.808821289 54.923610148 6.6285026762 9.7579002918 55.113886618 84.8469401 
181.71619573 39.810434007 25.627106828 17.247517722 76.964676858 10.992285593 31.696380546 5.3990446728 59.604828017 
221.84453978 65.274070001 20.880566843 34.176033793 25.675578864 25.130450305 32.489870469 149.79769645 20.162579835 
34.669613702 66.48795046 66.5787112 19.198872663 7.3602465972 112.85263291 79.597106926 56.362276475 12.138522213 
88.523350849 8.8598355368 27.602591712 43.40575209 33.241393253 94.929742245 112.84413235 49.493277176 22.723404988 
19.646664621 48.774723491 72.65691979 14.191088693 71.819857933 23.651572131 22.778331399 37.706848825 18.323394784 
93.225361415 11.450785204 24.583340299 14.066709164 73.824701505 3.6786580222 10.255026444 142.07648591 10.750528786 
48.385396018 15.797261908 49.528820294 21.45811562 52.049508091 75.428526528 30.039654578 47.186149828 38.977085391 
87.425572421 39.942306993 85.955109128 73.541566306 82.911526273 55.826527356 108.60783049 4.2377784844 30.375041143 
62.420996793 114.38789697 64.560384503 67.168503895 38.765607743 86.043953235 68.669608656 73.733120623 52.794843582 
140.27885844 33.88213365 42.398975212 7.6997636876 25.344324991 16.422075455 14.674134164 25.886385957 23.677781806 
105.83505983 32.202749005 12.101162126 14.88025787 4.8547549975 7.2398510487 29.556576002 102.20139516 56.114825368 
20.201136994 29.688518006 192.30937994 32.761768288 27.543204515 27.074262013 23.594784704 63.760732473 34.760811525 
6.1741559521 54.201187674 14.340282431 29.116367861 20.956678819 52.552074319 17.979925504 45.275497066 32.834925575 
36.395804963 60.026498891 11.060831607 52.330514896 57.79787027 14.438435442 33.396498808 14.68469762 22.859605626 
20.901992152 55.768528747 7.6022025267 0 38.420473956 0 37.192671963 0 35.782643542 
11.514285254 16.511085005 23.533512769 0 43.18646051 16.982095578 0 24.806424996 0 
0 14.489486787 26.090069072 0 26.346898202 0 0 22.223885067 0 
77.879017639 0 14.505827952 28.008143805 35.373125576 27.687213901 0 0 0 
0 20.934201172 7.1979624192 65.416437511 0 0 0 44.906731204 65.217151936 
22.817964883 43.688058263 6.2800133896 0 11.147451234 18.044864278 23.5179902 30.752622998 0 
0 69.49409488 66.470620017 31.306064992 17.305281407 35.715484518 0 58.710904934 0 
4.1534096705 48.506895428 0 0 0 18.084166796 18.770187201 19.131837897 34.671386408 
77.28126782 0 52.130288857 1.1937790963 2.5892582111 10.483604165 1.3824993237 0 11.890249715 
11.060309092 7.4199056158 23.192288567 1.8080040363 0 0 0 34.745064011 3.2633914536 
16.884252044 0 0 0.11721318664 0 15.446792545 0 0 17.964737582 
41.802768029 0 4.6884899099 32.862017267 0 13.007402984 12.255220984 0.12099826275 2.3635477094 
21.959379992 41.524809608 0 4.072514156 0 0 5.8220236352 2.3355432859 5.176997525 
30.337782164 12.187702801 0 0 0.19757930783 0.13914650376 0 0 18.006224747 
2.0180366006 33.895216749 0 0 0 0 19.083105038 0.73563012897 7.6451939981 
0 0 22.108253436 5.3234176403 13.161451281 0.72054874012 0 0 6.5745712704 
7.1006004247 8.7116863042 30.525859919 38.402822232 27.119807647 15.040224466 0 0 0 
6.3325310383 6.717344004 32.499403261 15.155406339 9.7285926764 0.62249982696 15.532639282 19.912915774 17.950866541 
29.279523612 41.258917187 37.282313791 13.324896663 37.805796465 3.2265103576 5.6257913271 11.13862345 3.1236671118 
6.6412817946 14.154194997 29.168291431 16.908069625 17.302884789 32.750975571 1.3432073958 0 10.016605422 
31.044519128 0.67690676731 142.73052068 16.590687313 25.036079837 0 29.276964243 20.395874003 0 
23.033675808 35.806550848 1.4248807539 18.93043774 56.631753534 2.2033545223 6.3833819788 3.9404825468 85.16555459 
7.3254779702 22.598931291 44.33035485 13.77557581 0 0 38.65795078 22.727039005 12.782643897 
0 6.5949145014 22.727257352 5.02578324 2.5508007899 5.6656566043 11.534664031 1.1447577344 3.7946601936 
11.424716282 23.356277756 12.687862207 45.936453222 21.785126352 33.149707197 12.225935038 30.138771241 3.4511997348 
52.164946898 10.47241461 6.3119157549 5.7373906189 19.894166185 8.2923277579 46.410191508 79.560803093 1.8365249187 
8.5185571732 12.143325939 6.6993520999 0 5.0107689795 51.62661399 0.20809751048 1.1337967422 5.8910640963 
16.018305954 4.0519766915 0 3.3583246728 0 20.683267634 36.394845677 2.7485495913 58.431174491 
81.815272462 15.991792283 22.751933852 31.379499104 24.540161998 6.9101291309 1.6812787198 16.491311121 7.9555094326 
33.296422259 15.985417534 68.267504357 13.363768753 2.7804797817 1.1253557239 0 22.684436069 53.968799245 
14.450742436 37.941078581 37.100779607 0.49436080606 19.657603178 1.59493658 1.2641174035 20.797032414 1.6704318012 
18.535625454 20.85304394 2.4634039786 8.4779029231 16.821368039 8.7068484884 0.67602401892 11.386927482 14.447529733 
14.487658305 22.067976707 6.2853121002 18.745592716 45.189735876 23.580406316 6.9607370317 8.2289951308 35.704593206 
35.418103679 1.4776370678 2.4723077805 54.076851212 9.0183957887 3.7897340055 44.622180231 0 10.87654832 
51.995863053 22.284058422 0 39.333215856 39.888341947 27.535828861 44.140173179 0.93641703633 29.929857649 
37.626633634 4.583488237 11.711097658 17.616257127 18.167217617 18.554042472 33.073886997 24.350278429 11.040590797 
6.809804016 2.8079299555 7.1353012386 8.7901917828 24.695549954 6.4240012601 18.666447365 24.895753369 0.24606321476 
3.3759019315 26.735996758 43.417624676 0.340262555 28.185891326 6.6432755822 12.693591076 22.22952095 0 
42.115721227 21.881358827 6.6890224702 18.604230069 29.402910846 9.5969653772 19.511008141 19.905410269 80.688753021 
51.921092836 15.999301067 0 30.315291774 10.073379945 0 0 6.3826472862 45.439590615 
6.2852505294 8.7919015478 9.2301712027 0 36.337562568 35.082032217 7.3074211395 16.300616106 9.0574803623 
66.316563855 1.8564974432 22.159198188 0 34.397494219 17.913120222 11.507759401 14.46396633 19.302821751 
27.743404645 10.460937921 5.1415509071 23.777127715 12.803980962 12.490807139 0.40334248442 23.628174746 20.807569768 
31.568138421 28.304320097 55.199920747 6.2007535752 2.5598154485 11.144821221 6.9614436665 0 12.193096032 
10.634404907 10.957710363 42.539358464 0 7.7212965513 3.7228277762 3.0726944727 0.93094785815 15.839482105 
8.1427418577 30.636594347 4.4876302809 4.3707285286 2.3988784735 19.724553936 2.0209872269 28.169439302 28.352365044 
11.495944942 8.5039729298 28.340003443 27.028656364 0 12.912663943 43.993813697 15.075768288 39.299667194 
30.334631618 5.2688721227 35.501681759 5.9282109818 18.739705652 5.6909055491 3.1111552925 1.0339511798 11.230546575 
16.896066554 38.246059989 33.09331407 29.642210584 12.158535172 2.856402701 19.613338343 9.273083566 10.961867544 
23.518416576 20.240954801 24.811840587 0 13.580780773 14.335950734 0 3.8004230652 20.570703668 
2.7972021622 5.2585746324 0 21.76722413 35.082550885 27.790539736 16.675950458 12.796814242 3.7321724043 
0.9351830524 27.526890004 3.1354964344 31.022313621 2.4516274931 12.886223589 20.040279771 10.003152323 3.951411998 
17.867134918 8.7091347393 0 8.4724935928 25.572890971 3.5609478176 12.029192084 4.7977426673 1.4920949027 
20.530354173 29.202097424 46.64693235 12.127154643 0.33779753081 36.223206768 15.864892132 1.605437588 12.048209602 
43.721521273 18.516535782 21.853054861 20.63504692 29.610618663 23.132346852 21.197958214 12.589246191 4.2843522956 
1.7039644456 42.80565697 5.9384862779 12.039808443 4.554732567 39.485545597 37.126150909 4.0696157595 4.3807311156 
6.8274250241 13.109836026 10.56040628 18.746308051 8.497709943 6.0698020144 0 8.7462800008 8.5863646864 
18.083505639 13.441490147 32.625027525 4.4838371922 48.842171389 26.397471658 0.59679651104 38.53966173 5.8211177094 
0 21.378873114 7.0968797432 21.471481484 42.254806833 9.4771410058 21.175411175 17.102108193 9.6067907146 
16.038206108 7.3204863072 0.8221306125 20.388319307 13.352058927 3.5661063041 13.550706597 6.9069504296 5.6393833545 
16.676628511 57.305294873 10.197488039 2.7551345012 8.177530347 19.881033887 2.239788353 11.34255338 16.64657267 
8.9254196613 0.021147926725 5.2635862816 39.42804277 35.309429461 21.533440962 0 31.999339889 43.333890398 
16.560882212 7.5570285835 13.229446032 20.28433769 17.64759348 38.201093203 24.803132988 0 13.42714879 
45.778513226 5.4925992941 30.507401278 3.1641096804 35.568058368 29.606179575 21.92207987 44.627935288 11.495082257 
28.92738081 17.620991705 30.650338238 27.950205588 16.641040896 68.144346867 43.466971804 49.143316965 18.761688489 
19.464581157 28.83408963 4.7259238566 18.920622918 20.691463085 29.180839234 1.8706521134 3.7719252143 36.858391505 
11.81108072 4.7070075714 6.8351933758 25.882641283 8.6085095266 23.24067981 24.424883455 0.70609794784 27.219495617 
34.371626938 7.3397162167 16.618300048 2.6350764182 3.8205557774 60.533891546 29.354192458 18.126704215 14.166305249 
13.521240581 35.534707329 17.892736689 21.704655096 10.80095894 0 31.484252774 12.148824273 82.581056684 
29.894584689 23.722518554 18.478226225 0.14136862563 19.721016516 0 33.890499073 23.175131767 19.835653665 
25.714733388 46.361137762 4.770205736 17.460367667 48.284897885 14.958492941 17.089253728 17.735702228 43.298300146 
54.200182336 8.9795236106 8.045910782 8.849025212 28.302270767 4.8202026856 19.612768808 25.160665988 0.78308899588 
15.993955492 25.53865638 9.8755209895 24.124173245 73.327523136 52.393092752 40.020716651 37.989480956 32.892864871 
2.7310814279 0 25.505752644 0 0 27.122525921 14.978683142 29.200700612 35.193566563 
36.190783451 19.736128383 14.765392371 0 0.2382403694 22.389262183 31.752503607 13.790824533 0.67595536877 
14.984336556 50.385827374 23.6937357 12.72282207 3.2598135886 104.49658935 58.95372917 4.8806979266 20.241744339 
34.036689224 26.493738785 0 4.3525708639 34.885655018 4.1759016177 20.653822324 4.7813808545 0 
41.254715204 0 53.735646182 36.065153626 0 2.5941646767 0.45981820889 62.933326345 8.5442317825 
76.110420111 2.0297091685 8.2777072566 16.569114375 0 13.695017676 16.746573134 0 20.599831928 
0 34.924263132 9.7998959241 15.670688394 26.832910285 35.490601303 11.662265744 24.306908666 27.281448531 
43.46981841 14.268165584 0 27.288095686 10.368851423 22.17832931 10.507937319 11.552316461 10.789586154 
4.782045104 41.651567924 24.536589004 0 9.4174659469 11.929658385 0 25.896067019 0 
9.4538318392 0 34.172726589 8.2583965837 0 17.7288558 0 12.248849057 37.525134785 
0 23.884274215 0 61.662870355 0 1.5827913454 15.02741216 8.4303669756 3.0778633808 
30.342945045 4.1253696937 0 0 0 26.857429325 0 0 0 
29.511147726 0 20.705264963 6.5807045613 0 0 81.924373727 70.969440926 0 
1.9143202064 3.5193231611 4.0550979122 0 19.261186766 36.95108639 16.111800238 10.040307477 10.146496015 
0 0 6.3340803107 0 5.9767544628 3.4171784533 0.85051816993 2.436847463 0 
25.635274501 0 10.122828269 7.3314578954 11.773176858 28.02431261 16.198918031 4.2440604146 3.9592975753 
0 45.651719293 32.278738928 12.521645441 0 0 19.350416919 0 8.4056209126 
0 55.641101887 0 13.037356522 3.2119842977 56.099813912 21.820581511 13.054468902 4.7493270839 
10.766935248 54.558277574 30.741001022 3.4115214831 31.504625676 4.6375112608 0 7.4828433913 10.19781342 
0 3.3333260557 0 0 0 5.935350845 19.849001512 0 10.692698736 
9.8227898542 35.786031267 5.0844877096 11.45805586 1.0068352855 28.845583447 32.669875592 0 12.23225715 
0 21.04308683 22.859216673 35.635134029 10.005452888 7.4374798292 21.534775386 37.860026038 24.948974536 
0.71854171372 30.615344932 0 10.640546524 25.04407804 0 55.939009196 13.061189156 0 
14.91033522 10.518323046 18.652714909 0 37.843214999 40.718193456 2.1178092194 19.042726284 7.5182138146 
57.943114715 15.16643065 0 0 32.577143002 23.248154267 0 20.134642666 41.643752017 
19.432746012 40.7291731 0 32.967064264 0.4402902456 33.704629522 15.294838436 15.627993426 17.388859187 
9.3196130525 0 41.03287723 25.734794993 8.9902570163 13.40964001 20.144306599 0 2.5313450645 
0 7.5156052884 68.864010447 35.780686952 0 28.585379841 28.595403306 0.69728116897 19.655011988 
13.267634119 18.469825461 9.2051368205 0 2.7469264772 10.751373701 20.312156536 10.526280385 61.36883423 
1.2692211188 5.2285335762 11.612859348 7.4443510523 3.1357411724 19.438198267 6.5492923474 16.187509266 1.7801496457 
26.780119771 40.419631657 22.280509187 11.280426508 0 58.45192448 9.3778936484 6.4964989095 12.630928973 
3.8940890346 10.138505288 10.711715395 1.51370376 10.683007396 9.4142696821 30.289282416 69.630733826 1.541455068 
17.385371924 41.468834213 10.119687424 15.050564234 8.7493319921 37.752658262 6.1765354646 18.510346086 10.665766876 
18.72159502 2.7078756566 0 1.5863282562 17.751603086 11.472555778 29.522986773 15.681727424 29.598229853 
31.420160676 11.825471597 26.454543558 23.004340514 0 0 0 0 0 
0 0 0 0 0 174.66200737 0 0 0 
0 0 0 0 86.837958481 0 0 0 0 
0 0 54.017506872 0 0 0 73.01523342 0 0 
55.508320956 0 0 216.56787036 155.68438321 0 249.90708871 0 0 
98.995893008 0 227.4698644 0 0 136.072823 0 0 275.7741086 
0 0 0 24.12858267 0 0 0 0 0 
0 0 0 0 0 0 0 0 246.48416131 
0 0 0 0 0 0 0 64.963053851 0 
0 0 0 0 0 0 0 0 0 
226.01498599 0 0 0 0 0 0 0 161.52717059 
0 0 0 0 0 0 0 0 0 
0 0 0 0 0 0 0 0 0 
0 0 86.407114112 0 0 0 0 0 0 
0 0 0 0 0 0 0 0 0 
0 0 0 0 0 0 0 0 0 
0 0 186.5566453 0 0 0 0 0 0 
0 0 0 0 0 0 0 0 0 
0 0 0 0 0 0 0 0 0 
0 0 0 0 0 0 0 0 0 
0 0 0 0 0 0 0 0 0 
167.04684115 0 19.853659111 58.678217317 0 0 0 0 0 
0 0 0 0 0 0 0 0 0 
0 0 0 0 0 0 0 0 0 
0 0 0 0 0 0 0 0 0 
0 0 0 0 0 0 0 0 0 
0 0 0 0 0 0 0 0 0 
0 0 0 0 0 0 0 249.58040381 0 
0 82.002549296 0 0 95.597962535 0 0 0 0 
0 0 0 0 0 0 0 0 0 
0 0 0 227.0473289 0 0 0 0 0 
0 0 0 0 0 0 0 0 0 
0 0 0 0 0 0 0 0 0 
0 0 0 0 0 0 0 0 0 
0 0 0 0 0 0 0 0 0 
0 0 0 0 0 0 0 0 0 
0 0 0 0 0 0 0 0 0 
0 0 0 0 0 0 0 0 0 
0 0 0 0 0 0 0 0 0 

